PYTHONPATH: Undefined variable.
 Entering Gaussian System, Link 0=/app1/ia32-64/Gaussian/Rev-C.02/g16/g16
 Initial command:
 /app1/ia32-64/Gaussian/Rev-C.02/g16/l1.exe "/scratch/1005639.venus01/Gau-64749.inp" -scrdir="/scratch/1005639.venus01/"
 Entering Link 1 = /app1/ia32-64/Gaussian/Rev-C.02/g16/l1.exe PID=     64769.
  
 Copyright (c) 1988-2021, Gaussian, Inc.  All Rights Reserved.
  
 This is part of the Gaussian(R) 16 program.  It is based on
 the Gaussian(R) 09 system (copyright 2009, Gaussian, Inc.),
 the Gaussian(R) 03 system (copyright 2003, Gaussian, Inc.),
 the Gaussian(R) 98 system (copyright 1998, Gaussian, Inc.),
 the Gaussian(R) 94 system (copyright 1995, Gaussian, Inc.),
 the Gaussian 92(TM) system (copyright 1992, Gaussian, Inc.),
 the Gaussian 90(TM) system (copyright 1990, Gaussian, Inc.),
 the Gaussian 88(TM) system (copyright 1988, Gaussian, Inc.),
 the Gaussian 86(TM) system (copyright 1986, Carnegie Mellon
 University), and the Gaussian 82(TM) system (copyright 1983,
 Carnegie Mellon University). Gaussian is a federally registered
 trademark of Gaussian, Inc.
  
 This software contains proprietary and confidential information,
 including trade secrets, belonging to Gaussian, Inc.
  
 This software is provided under written license and may be
 used, copied, transmitted, or stored only in accord with that
 written license.
  
 The following legend is applicable only to US Government
 contracts under FAR:
  
                    RESTRICTED RIGHTS LEGEND
  
 Use, reproduction and disclosure by the US Government is
 subject to restrictions as set forth in subparagraphs (a)
 and (c) of the Commercial Computer Software - Restricted
 Rights clause in FAR 52.227-19.
  
 Gaussian, Inc.
 340 Quinnipiac St., Bldg. 40, Wallingford CT 06492
  
  
 ---------------------------------------------------------------
 Warning -- This program may not be used in any manner that
 competes with the business of Gaussian, Inc. or will provide
 assistance to any competitor of Gaussian, Inc.  The licensee
 of this program is prohibited from giving any competitor of
 Gaussian, Inc. access to this program.  By using this program,
 the user acknowledges that Gaussian, Inc. is engaged in the
 business of creating and licensing software in the field of
 computational chemistry and represents and warrants to the
 licensee that it is not a competitor of Gaussian, Inc. and that
 it will not use this program in any manner prohibited above.
 ---------------------------------------------------------------
  

 Cite this work as:
 Gaussian 16, Revision C.02,
 M. J. Frisch, G. W. Trucks, H. B. Schlegel, G. E. Scuseria, 
 M. A. Robb, J. R. Cheeseman, G. Scalmani, V. Barone, 
 G. A. Petersson, H. Nakatsuji, X. Li, M. Caricato, A. V. Marenich, 
 J. Bloino, B. G. Janesko, R. Gomperts, B. Mennucci, H. P. Hratchian, 
 J. V. Ortiz, A. F. Izmaylov, J. L. Sonnenberg, D. Williams-Young, 
 F. Ding, F. Lipparini, F. Egidi, J. Goings, B. Peng, A. Petrone, 
 T. Henderson, D. Ranasinghe, V. G. Zakrzewski, J. Gao, N. Rega, 
 G. Zheng, W. Liang, M. Hada, M. Ehara, K. Toyota, R. Fukuda, 
 J. Hasegawa, M. Ishida, T. Nakajima, Y. Honda, O. Kitao, H. Nakai, 
 T. Vreven, K. Throssell, J. A. Montgomery, Jr., J. E. Peralta, 
 F. Ogliaro, M. J. Bearpark, J. J. Heyd, E. N. Brothers, K. N. Kudin, 
 V. N. Staroverov, T. A. Keith, R. Kobayashi, J. Normand, 
 K. Raghavachari, A. P. Rendell, J. C. Burant, S. S. Iyengar, 
 J. Tomasi, M. Cossi, J. M. Millam, M. Klene, C. Adamo, R. Cammi, 
 J. W. Ochterski, R. L. Martin, K. Morokuma, O. Farkas, 
 J. B. Foresman, and D. J. Fox, Gaussian, Inc., Wallingford CT, 2019.
 
 ******************************************
 Gaussian 16:  ES64L-G16RevC.02  7-Dec-2021
                13-Sep-2026 
 ******************************************
 %chk=ch2foh.chk
 %mem=6GB
 %nprocshared=1
 Will use up to    1 processors via shared memory.
 ---------------------------------------------
 #p b3lyp/cc-pVTZ opt=tight freq int=ultrafine
 ---------------------------------------------
 1/7=10,18=20,19=15,26=4,38=1/1,3;
 2/9=110,12=2,17=6,18=5,40=1/2;
 3/5=16,6=1,11=2,25=1,30=1,71=1,74=-5,75=-5/1,2,3;
 4//1;
 5/5=2,38=5/2;
 6/7=2,8=2,9=2,10=2,28=1/1;
 7//1,2,3,16;
 1/7=10,18=20,19=15,26=4/3(2);
 2/9=110/2;
 99//99;
 2/9=110/2;
 3/5=16,6=1,11=2,25=1,30=1,71=1,74=-5,75=-5/1,2,3;
 4/5=5,16=3,69=1/1;
 5/5=2,38=5/2;
 7//1,2,3,16;
 1/7=10,18=20,19=15,26=4/3(-5);
 2/9=110/2;
 6/7=2,8=2,9=2,10=2,19=2,28=1/1;
 99/9=1/99;
 Leave Link    1 at Sun Sep 13 22:07:01 2026, MaxMem=   805306368 cpu:               0.0 elap:               0.1
 (Enter /app1/ia32-64/Gaussian/Rev-C.02/g16/l101.exe)
 --------------------------------------------------------------
 CFH2-OH (fluoromethanol) ground-state opt+freq / B3LYP/cc-pVTZ
 --------------------------------------------------------------
 Symbolic Z-matrix:
 Charge =  0 Multiplicity = 1
 C
 F                    1     1.38 
 O                    1     1.4      2     108. 
 H                    1     1.09     2     110.     3     120.     0
 H                    1     1.09     2     110.     3    -120.     0
 H                    3     0.96     1     108.     2     60.      0
 
 ITRead=  0  0  0  0  0  0
 MicOpt= -1 -1 -1 -1 -1 -1
 NAtoms=      6 NQM=        6 NQMF=       0 NMMI=      0 NMMIF=      0
                NMic=       0 NMicF=      0.
                    Isotopes and Nuclear Properties:
 (Nuclear quadrupole moments (NQMom) in fm**2, nuclear magnetic moments (NMagM)
  in nuclear magnetons)

  Atom         1           2           3           4           5           6
 IAtWgt=          12          19          16           1           1           1
 AtmWgt=  12.0000000  18.9984032  15.9949146   1.0078250   1.0078250   1.0078250
 NucSpn=           0           1           0           1           1           1
 AtZEff=  -0.0000000  -0.0000000  -0.0000000  -0.0000000  -0.0000000  -0.0000000
 NQMom=    0.0000000   0.0000000   0.0000000   0.0000000   0.0000000   0.0000000
 NMagM=    0.0000000   2.6288670   0.0000000   2.7928460   2.7928460   2.7928460
 AtZNuc=   6.0000000   9.0000000   8.0000000   1.0000000   1.0000000   1.0000000
 Leave Link  101 at Sun Sep 13 22:07:02 2026, MaxMem=   805306368 cpu:               0.2 elap:               0.2
 (Enter /app1/ia32-64/Gaussian/Rev-C.02/g16/l103.exe)

 GradGradGradGradGradGradGradGradGradGradGradGradGradGradGradGradGradGrad
 Berny optimization.
 Initialization pass.
                           ----------------------------
                           !    Initial Parameters    !
                           ! (Angstroms and Degrees)  !
 --------------------------                            --------------------------
 ! Name  Definition              Value          Derivative Info.                !
 --------------------------------------------------------------------------------
 ! R1    R(1,2)                  1.38           estimate D2E/DX2                !
 ! R2    R(1,3)                  1.4            estimate D2E/DX2                !
 ! R3    R(1,4)                  1.09           estimate D2E/DX2                !
 ! R4    R(1,5)                  1.09           estimate D2E/DX2                !
 ! R5    R(3,6)                  0.96           estimate D2E/DX2                !
 ! A1    A(2,1,3)              108.0            estimate D2E/DX2                !
 ! A2    A(2,1,4)              110.0            estimate D2E/DX2                !
 ! A3    A(2,1,5)              110.0            estimate D2E/DX2                !
 ! A4    A(3,1,4)              109.9476         estimate D2E/DX2                !
 ! A5    A(3,1,5)              109.9476         estimate D2E/DX2                !
 ! A6    A(4,1,5)              108.9373         estimate D2E/DX2                !
 ! A7    A(1,3,6)              108.0            estimate D2E/DX2                !
 ! D1    D(2,1,3,6)             60.0            estimate D2E/DX2                !
 ! D2    D(4,1,3,6)            -60.033          estimate D2E/DX2                !
 ! D3    D(5,1,3,6)           -179.967          estimate D2E/DX2                !
 --------------------------------------------------------------------------------
 Trust Radius=3.00D-01 FncErr=1.00D-07 GrdErr=1.00D-06 EigMax=2.50D+02 EigMin=1.00D-04
 Number of steps in this run=     25 maximum allowed number of steps=    100.
 GradGradGradGradGradGradGradGradGradGradGradGradGradGradGradGradGradGrad

 Leave Link  103 at Sun Sep 13 22:07:02 2026, MaxMem=   805306368 cpu:               0.0 elap:               0.0
 (Enter /app1/ia32-64/Gaussian/Rev-C.02/g16/l202.exe)
                          Input orientation:                          
 ---------------------------------------------------------------------
 Center     Atomic      Atomic             Coordinates (Angstroms)
 Number     Number       Type             X           Y           Z
 ---------------------------------------------------------------------
      1          6           0        0.000000    0.000000    0.000000
      2          9           0        0.000000    0.000000    1.380000
      3          8           0        1.331479    0.000000   -0.432624
      4          1           0       -0.512132   -0.887039   -0.372802
      5          1           0       -0.512132    0.887039   -0.372802
      6          1           0        1.754685   -0.790694   -0.090132
 ---------------------------------------------------------------------
                    Distance matrix (angstroms):
                    1          2          3          4          5
     1  C    0.000000
     2  F    1.380000   0.000000
     3  O    1.400000   2.249098   0.000000
     4  H    1.090000   2.030131   2.046783   0.000000
     5  H    1.090000   2.030131   2.046783   1.774079   0.000000
     6  H    1.926717   2.421859   0.960000   2.286404   2.834281
                    6
     6  H    0.000000
 Stoichiometry    CH3FO
 Framework group  C1[X(CH3FO)]
 Deg. of freedom    12
 Full point group                 C1      NOp   1
 Largest Abelian subgroup         C1      NOp   1
 Largest concise Abelian subgroup C1      NOp   1
                         Standard orientation:                         
 ---------------------------------------------------------------------
 Center     Atomic      Atomic             Coordinates (Angstroms)
 Number     Number       Type             X           Y           Z
 ---------------------------------------------------------------------
      1          6           0        0.031555    0.535855    0.045315
      2          9           0        1.106927   -0.325945   -0.027322
      3          8           0       -1.137991   -0.217572   -0.111242
      4          1           0        0.022511    1.040090    1.011631
      5          1           0        0.099940    1.284666   -0.743802
      6          1           0       -1.170194   -0.865808    0.596114
 ---------------------------------------------------------------------
 Rotational constants (GHZ):          42.9558283          10.6384718           9.1876472
 Leave Link  202 at Sun Sep 13 22:07:02 2026, MaxMem=   805306368 cpu:               0.0 elap:               0.0
 (Enter /app1/ia32-64/Gaussian/Rev-C.02/g16/l301.exe)
 Standard basis: CC-pVTZ (5D, 7F)
 Ernie: Thresh=  0.10000D-02 Tol=  0.10000D-05 Strict=F.
 Ernie:  9 primitive shells out of 102 were deleted.
 There are   150 symmetry adapted cartesian basis functions of A   symmetry.
 There are   132 symmetry adapted basis functions of A   symmetry.
   132 basis functions,   207 primitive gaussians,   150 cartesian basis functions
    13 alpha electrons       13 beta electrons
       nuclear repulsion energy        79.1856438767 Hartrees.
 IExCor=  402 DFT=T Ex+Corr=B3LYP ExCW=0 ScaHFX=  0.200000
 ScaDFX=  0.800000  0.720000  1.000000  0.810000 ScalE2=  1.000000  1.000000
 IRadAn=      5 IRanWt=     -1 IRanGd=            0 ICorTp=0 IEmpDi=  4
 NAtoms=    6 NActive=    6 NUniq=    6 SFac= 1.00D+00 NAtFMM=   60 NAOKFM=F Big=F
 Integral buffers will be    131072 words long.
 Raffenetti 2 integral format.
 Two-electron integral symmetry is turned on.
 Leave Link  301 at Sun Sep 13 22:07:02 2026, MaxMem=   805306368 cpu:               0.0 elap:               0.0
 (Enter /app1/ia32-64/Gaussian/Rev-C.02/g16/l302.exe)
 NPDir=0 NMtPBC=     1 NCelOv=     1 NCel=       1 NClECP=     1 NCelD=      1
         NCelK=      1 NCelE2=     1 NClLst=     1 CellRange=     0.0.
 One-electron integrals computed using PRISM.
 One-electron integral symmetry used in STVInt
 NBasis=   132 RedAO= T EigKep=  1.91D-03  NBF=   132
 NBsUse=   132 1.00D-06 EigRej= -1.00D+00 NBFU=   132
 Precomputing XC quadrature grid using
 IXCGrd= 4 IRadAn=           5 IRanWt=          -1 IRanGd=           0 AccXCQ= 0.00D+00.
 Generated NRdTot=       0 NPtTot=           0 NUsed=           0 NTot=          32
 NSgBfM=   150   150   150   150   150 MxSgAt=     6 MxSgA2=     6.
 Leave Link  302 at Sun Sep 13 22:07:02 2026, MaxMem=   805306368 cpu:               0.1 elap:               0.2
 (Enter /app1/ia32-64/Gaussian/Rev-C.02/g16/l303.exe)
 DipDrv:  MaxL=1.
 Leave Link  303 at Sun Sep 13 22:07:02 2026, MaxMem=   805306368 cpu:               0.0 elap:               0.1
 (Enter /app1/ia32-64/Gaussian/Rev-C.02/g16/l401.exe)
 ExpMin= 1.03D-01 ExpMax= 1.95D+04 ExpMxC= 6.65D+02 IAcc=3 IRadAn=         5 AccDes= 0.00D+00
 Harris functional with IExCor=  402 and IRadAn=       5 diagonalized for initial guess.
 HarFok:  IExCor=  402 AccDes= 0.00D+00 IRadAn=         5 IDoV= 1 UseB2=F ITyADJ=14
 ICtDFT=  3500011 ScaDFX=  1.000000  1.000000  1.000000  1.000000
 FoFCou: FMM=F IPFlag=           0 FMFlag=      100000 FMFlg1=           0
         NFxFlg=           0 DoJE=T BraDBF=F KetDBF=T FulRan=T
         wScrn=  0.000000 ICntrl=       500 IOpCl=  0 I1Cent=   200000004 NGrid=           0
         NMat0=    1 NMatS0=      1 NMatT0=    0 NMatD0=    1 NMtDS0=    0 NMtDT0=    0
 Petite list used in FoFCou.
 Harris En= -215.058635377080    
 JPrj=0 DoOrth=F DoCkMO=F.
 Leave Link  401 at Sun Sep 13 22:07:03 2026, MaxMem=   805306368 cpu:               0.7 elap:               0.7
 (Enter /app1/ia32-64/Gaussian/Rev-C.02/g16/l502.exe)
 Keep R1 ints in memory in canonical form, NReq=40547601.
 FoFCou: FMM=F IPFlag=           0 FMFlag=           0 FMFlg1=           0
         NFxFlg=           0 DoJE=F BraDBF=F KetDBF=F FulRan=T
         wScrn=  0.000000 ICntrl=       600 IOpCl=  0 I1Cent=           0 NGrid=           0
         NMat0=    1 NMatS0=   8778 NMatT0=    0 NMatD0=    1 NMtDS0=    0 NMtDT0=    0
 Symmetry not used in FoFCou.
 Two-electron integral symmetry not used.
 Closed shell SCF:
 Using DIIS extrapolation, IDIIS=  1040.
 NGot=   805306368 LenX=   766727867 LenY=   766704926
 Requested convergence on RMS density matrix=1.00D-08 within 128 cycles.
 Requested convergence on MAX density matrix=1.00D-06.
 Requested convergence on             energy=1.00D-06.
 No special actions if energy rises.
 Integral accuracy reduced to 1.0D-05 until final iterations.

 Cycle   1  Pass 0  IDiag  1:
 E= -214.989234282872    
 DIIS: error= 2.28D-02 at cycle   1 NSaved=   1.
 NSaved= 1 IEnMin= 1 EnMin= -214.989234282872     IErMin= 1 ErrMin= 2.28D-02
 ErrMax= 2.28D-02  0.00D+00 EMaxC= 1.00D-01 BMatC= 1.06D-01 BMatP= 1.06D-01
 IDIUse=3 WtCom= 7.72D-01 WtEn= 2.28D-01
 Coeff-Com:  0.100D+01
 Coeff-En:   0.100D+01
 Coeff:      0.100D+01
 Gap=     0.280 Goal=   None    Shift=    0.000
 GapD=    0.280 DampG=1.000 DampE=0.500 DampFc=0.5000 IDamp=-1.
 Damping current iteration by 5.00D-01
 RMSDP=3.24D-03 MaxDP=5.61D-02              OVMax= 1.50D-01

 Cycle   2  Pass 0  IDiag  1:
 E= -215.010738875283     Delta-E=       -0.021504592411 Rises=F Damp=T
 DIIS: error= 6.14D-03 at cycle   2 NSaved=   2.
 NSaved= 2 IEnMin= 2 EnMin= -215.010738875283     IErMin= 2 ErrMin= 6.14D-03
 ErrMax= 6.14D-03  0.00D+00 EMaxC= 1.00D-01 BMatC= 9.52D-03 BMatP= 1.06D-01
 IDIUse=3 WtCom= 9.39D-01 WtEn= 6.14D-02
 Coeff-Com:  0.172D+00 0.828D+00
 Coeff-En:   0.304D+00 0.696D+00
 Coeff:      0.180D+00 0.820D+00
 Gap=     0.354 Goal=   None    Shift=    0.000
 RMSDP=5.90D-04 MaxDP=1.10D-02 DE=-2.15D-02 OVMax= 8.87D-02

 Cycle   3  Pass 0  IDiag  1:
 E= -215.054349654068     Delta-E=       -0.043610778785 Rises=F Damp=F
 DIIS: error= 3.75D-03 at cycle   3 NSaved=   3.
 NSaved= 3 IEnMin= 3 EnMin= -215.054349654068     IErMin= 3 ErrMin= 3.75D-03
 ErrMax= 3.75D-03  0.00D+00 EMaxC= 1.00D-01 BMatC= 1.99D-03 BMatP= 9.52D-03
 IDIUse=3 WtCom= 9.62D-01 WtEn= 3.75D-02
 Coeff-Com:  0.169D-01 0.299D+00 0.684D+00
 Coeff-En:   0.000D+00 0.000D+00 0.100D+01
 Coeff:      0.163D-01 0.288D+00 0.696D+00
 Gap=     0.346 Goal=   None    Shift=    0.000
 RMSDP=2.47D-04 MaxDP=4.79D-03 DE=-4.36D-02 OVMax= 1.15D-02

 Cycle   4  Pass 0  IDiag  1:
 E= -215.055502544083     Delta-E=       -0.001152890015 Rises=F Damp=F
 DIIS: error= 1.69D-03 at cycle   4 NSaved=   4.
 NSaved= 4 IEnMin= 4 EnMin= -215.055502544083     IErMin= 4 ErrMin= 1.69D-03
 ErrMax= 1.69D-03  0.00D+00 EMaxC= 1.00D-01 BMatC= 5.10D-04 BMatP= 1.99D-03
 IDIUse=3 WtCom= 9.83D-01 WtEn= 1.69D-02
 Coeff-Com: -0.433D-02 0.795D-01 0.369D+00 0.556D+00
 Coeff-En:   0.000D+00 0.000D+00 0.153D+00 0.847D+00
 Coeff:     -0.426D-02 0.782D-01 0.365D+00 0.561D+00
 Gap=     0.344 Goal=   None    Shift=    0.000
 RMSDP=1.08D-04 MaxDP=1.99D-03 DE=-1.15D-03 OVMax= 4.47D-03

 Cycle   5  Pass 0  IDiag  1:
 E= -215.055813023611     Delta-E=       -0.000310479528 Rises=F Damp=F
 DIIS: error= 3.27D-04 at cycle   5 NSaved=   5.
 NSaved= 5 IEnMin= 5 EnMin= -215.055813023611     IErMin= 5 ErrMin= 3.27D-04
 ErrMax= 3.27D-04  0.00D+00 EMaxC= 1.00D-01 BMatC= 2.83D-05 BMatP= 5.10D-04
 IDIUse=3 WtCom= 9.97D-01 WtEn= 3.27D-03
 Coeff-Com: -0.203D-02 0.140D-01 0.119D+00 0.266D+00 0.602D+00
 Coeff-En:   0.000D+00 0.000D+00 0.000D+00 0.000D+00 0.100D+01
 Coeff:     -0.202D-02 0.140D-01 0.119D+00 0.266D+00 0.604D+00
 Gap=     0.343 Goal=   None    Shift=    0.000
 RMSDP=2.29D-05 MaxDP=3.96D-04 DE=-3.10D-04 OVMax= 1.24D-03

 Cycle   6  Pass 0  IDiag  1:
 E= -215.055827413255     Delta-E=       -0.000014389644 Rises=F Damp=F
 DIIS: error= 1.79D-04 at cycle   6 NSaved=   6.
 NSaved= 6 IEnMin= 6 EnMin= -215.055827413255     IErMin= 6 ErrMin= 1.79D-04
 ErrMax= 1.79D-04  0.00D+00 EMaxC= 1.00D-01 BMatC= 3.56D-06 BMatP= 2.83D-05
 IDIUse=3 WtCom= 9.98D-01 WtEn= 1.79D-03
 Coeff-Com: -0.885D-03 0.738D-03 0.374D-01 0.102D+00 0.338D+00 0.523D+00
 Coeff-En:   0.000D+00 0.000D+00 0.000D+00 0.000D+00 0.681D-01 0.932D+00
 Coeff:     -0.883D-03 0.737D-03 0.373D-01 0.101D+00 0.338D+00 0.524D+00
 Gap=     0.343 Goal=   None    Shift=    0.000
 RMSDP=6.80D-06 MaxDP=1.75D-04 DE=-1.44D-05 OVMax= 3.76D-04

 Initial convergence to 1.0D-05 achieved.  Increase integral accuracy.
 Cycle   7  Pass 1  IDiag  1:
 E= -215.055830349020     Delta-E=       -0.000002935765 Rises=F Damp=F
 DIIS: error= 1.30D-05 at cycle   1 NSaved=   1.
 NSaved= 1 IEnMin= 1 EnMin= -215.055830349020     IErMin= 1 ErrMin= 1.30D-05
 ErrMax= 1.30D-05  0.00D+00 EMaxC= 1.00D-01 BMatC= 1.37D-08 BMatP= 1.37D-08
 IDIUse=1 WtCom= 1.00D+00 WtEn= 0.00D+00
 Coeff-Com:  0.100D+01
 Coeff:      0.100D+01
 Gap=     0.343 Goal=   None    Shift=    0.000
 RMSDP=6.80D-06 MaxDP=1.75D-04 DE=-2.94D-06 OVMax= 5.59D-05

 Cycle   8  Pass 1  IDiag  1:
 E= -215.055830348694     Delta-E=        0.000000000326 Rises=F Damp=F
 DIIS: error= 1.03D-05 at cycle   2 NSaved=   2.
 NSaved= 2 IEnMin= 1 EnMin= -215.055830349020     IErMin= 2 ErrMin= 1.03D-05
 ErrMax= 1.03D-05  0.00D+00 EMaxC= 1.00D-01 BMatC= 1.67D-08 BMatP= 1.37D-08
 IDIUse=1 WtCom= 1.00D+00 WtEn= 0.00D+00
 Coeff-Com:  0.527D+00 0.473D+00
 Coeff:      0.527D+00 0.473D+00
 Gap=     0.343 Goal=   None    Shift=    0.000
 RMSDP=5.24D-07 MaxDP=1.05D-05 DE= 3.26D-10 OVMax= 2.53D-05

 Cycle   9  Pass 1  IDiag  1:
 E= -215.055830359719     Delta-E=       -0.000000011024 Rises=F Damp=F
 DIIS: error= 1.85D-06 at cycle   3 NSaved=   3.
 NSaved= 3 IEnMin= 3 EnMin= -215.055830359719     IErMin= 3 ErrMin= 1.85D-06
 ErrMax= 1.85D-06  0.00D+00 EMaxC= 1.00D-01 BMatC= 1.01D-09 BMatP= 1.37D-08
 IDIUse=1 WtCom= 1.00D+00 WtEn= 0.00D+00
 Coeff-Com:  0.185D+00 0.232D+00 0.584D+00
 Coeff:      0.185D+00 0.232D+00 0.584D+00
 Gap=     0.343 Goal=   None    Shift=    0.000
 RMSDP=1.31D-07 MaxDP=3.05D-06 DE=-1.10D-08 OVMax= 7.78D-06

 Cycle  10  Pass 1  IDiag  1:
 E= -215.055830360312     Delta-E=       -0.000000000593 Rises=F Damp=F
 DIIS: error= 5.58D-07 at cycle   4 NSaved=   4.
 NSaved= 4 IEnMin= 4 EnMin= -215.055830360312     IErMin= 4 ErrMin= 5.58D-07
 ErrMax= 5.58D-07  0.00D+00 EMaxC= 1.00D-01 BMatC= 5.01D-11 BMatP= 1.01D-09
 IDIUse=1 WtCom= 1.00D+00 WtEn= 0.00D+00
 Coeff-Com:  0.320D-01 0.442D-01 0.225D+00 0.699D+00
 Coeff:      0.320D-01 0.442D-01 0.225D+00 0.699D+00
 Gap=     0.343 Goal=   None    Shift=    0.000
 RMSDP=3.82D-08 MaxDP=7.33D-07 DE=-5.93D-10 OVMax= 1.59D-06

 Cycle  11  Pass 1  IDiag  1:
 E= -215.055830360341     Delta-E=       -0.000000000029 Rises=F Damp=F
 DIIS: error= 2.64D-07 at cycle   5 NSaved=   5.
 NSaved= 5 IEnMin= 5 EnMin= -215.055830360341     IErMin= 5 ErrMin= 2.64D-07
 ErrMax= 2.64D-07  0.00D+00 EMaxC= 1.00D-01 BMatC= 8.40D-12 BMatP= 5.01D-11
 IDIUse=1 WtCom= 1.00D+00 WtEn= 0.00D+00
 Coeff-Com: -0.508D-02-0.635D-02 0.430D-01 0.359D+00 0.610D+00
 Coeff:     -0.508D-02-0.635D-02 0.430D-01 0.359D+00 0.610D+00
 Gap=     0.343 Goal=   None    Shift=    0.000
 RMSDP=1.14D-08 MaxDP=2.84D-07 DE=-2.85D-11 OVMax= 6.71D-07

 Cycle  12  Pass 1  IDiag  1:
 E= -215.055830360347     Delta-E=       -0.000000000007 Rises=F Damp=F
 DIIS: error= 5.75D-08 at cycle   6 NSaved=   6.
 NSaved= 6 IEnMin= 6 EnMin= -215.055830360347     IErMin= 6 ErrMin= 5.75D-08
 ErrMax= 5.75D-08  0.00D+00 EMaxC= 1.00D-01 BMatC= 7.38D-13 BMatP= 8.40D-12
 IDIUse=1 WtCom= 1.00D+00 WtEn= 0.00D+00
 Coeff-Com: -0.443D-02-0.571D-02 0.107D-01 0.164D+00 0.332D+00 0.504D+00
 Coeff:     -0.443D-02-0.571D-02 0.107D-01 0.164D+00 0.332D+00 0.504D+00
 Gap=     0.343 Goal=   None    Shift=    0.000
 RMSDP=4.13D-09 MaxDP=7.54D-08 DE=-6.65D-12 OVMax= 1.46D-07

 SCF Done:  E(RB3LYP) =  -215.055830360     A.U. after   12 cycles
            NFock= 12  Conv=0.41D-08     -V/T= 2.0055
 KE= 2.138713852061D+02 PE=-6.672222113640D+02 EE= 1.591093519208D+02
 Leave Link  502 at Sun Sep 13 22:07:14 2026, MaxMem=   805306368 cpu:               7.9 elap:              10.8
 (Enter /app1/ia32-64/Gaussian/Rev-C.02/g16/l601.exe)
 Copying SCF densities to generalized density rwf, IOpCl= 0 IROHF=0.

 **********************************************************************

            Population analysis using the SCF Density.

 **********************************************************************

 Orbital symmetries:
       Occupied  (A) (A) (A) (A) (A) (A) (A) (A) (A) (A) (A) (A)
                 (A)
       Virtual   (A) (A) (A) (A) (A) (A) (A) (A) (A) (A) (A) (A)
                 (A) (A) (A) (A) (A) (A) (A) (A) (A) (A) (A) (A)
                 (A) (A) (A) (A) (A) (A) (A) (A) (A) (A) (A) (A)
                 (A) (A) (A) (A) (A) (A) (A) (A) (A) (A) (A) (A)
                 (A) (A) (A) (A) (A) (A) (A) (A) (A) (A) (A) (A)
                 (A) (A) (A) (A) (A) (A) (A) (A) (A) (A) (A) (A)
                 (A) (A) (A) (A) (A) (A) (A) (A) (A) (A) (A) (A)
                 (A) (A) (A) (A) (A) (A) (A) (A) (A) (A) (A) (A)
                 (A) (A) (A) (A) (A) (A) (A) (A) (A) (A) (A) (A)
                 (A) (A) (A) (A) (A) (A) (A) (A) (A) (A) (A)
 The electronic state is 1-A.
 Alpha  occ. eigenvalues --  -24.67401 -19.14912 -10.30349  -1.21045  -1.04450
 Alpha  occ. eigenvalues --   -0.69770  -0.55288  -0.52141  -0.50556  -0.42229
 Alpha  occ. eigenvalues --   -0.38429  -0.35237  -0.31337
 Alpha virt. eigenvalues --    0.03009   0.06173   0.10154   0.10656   0.17524
 Alpha virt. eigenvalues --    0.31170   0.31540   0.32372   0.37178   0.41088
 Alpha virt. eigenvalues --    0.43565   0.45220   0.50858   0.56627   0.60638
 Alpha virt. eigenvalues --    0.63996   0.68983   0.70340   0.73611   0.82096
 Alpha virt. eigenvalues --    0.87793   0.91112   1.01452   1.02794   1.05168
 Alpha virt. eigenvalues --    1.05967   1.11069   1.18010   1.20584   1.27407
 Alpha virt. eigenvalues --    1.29465   1.34341   1.43082   1.60641   1.75590
 Alpha virt. eigenvalues --    1.80717   1.85979   1.91614   2.01524   2.04162
 Alpha virt. eigenvalues --    2.13384   2.17248   2.23112   2.25222   2.31292
 Alpha virt. eigenvalues --    2.38972   2.49142   2.64388   2.72667   2.83027
 Alpha virt. eigenvalues --    2.86364   2.88219   2.93000   2.97633   3.00252
 Alpha virt. eigenvalues --    3.12497   3.13300   3.19824   3.26793   3.27998
 Alpha virt. eigenvalues --    3.33507   3.40322   3.42526   3.45904   3.49234
 Alpha virt. eigenvalues --    3.56217   3.60790   3.67661   3.75670   3.79905
 Alpha virt. eigenvalues --    3.86476   3.91516   3.96746   4.01376   4.06367
 Alpha virt. eigenvalues --    4.11894   4.16469   4.25586   4.42856   4.56813
 Alpha virt. eigenvalues --    4.62080   4.70225   4.76279   4.82221   4.84848
 Alpha virt. eigenvalues --    4.95026   4.99930   5.02457   5.12610   5.29754
 Alpha virt. eigenvalues --    5.51029   5.68315   5.74169   5.84314   5.88956
 Alpha virt. eigenvalues --    6.11893   6.44312   6.61705   6.65264   6.67032
 Alpha virt. eigenvalues --    6.75410   6.84894   6.88831   6.92405   7.01996
 Alpha virt. eigenvalues --    7.04576   7.07500   7.27790   7.30523   7.33973
 Alpha virt. eigenvalues --    7.39374   8.37137   8.38019   8.83037   8.83857
 Alpha virt. eigenvalues --    8.98235  11.08975  11.40569  12.29628
          Condensed to atoms (all electrons):
               1          2          3          4          5          6
     1  C    4.273682   0.342243   0.401910   0.385619   0.370914  -0.036377
     2  F    0.342243   9.049345  -0.066428  -0.050412  -0.041045   0.004559
     3  O    0.401910  -0.066428   7.741499  -0.054866  -0.031535   0.331853
     4  H    0.385619  -0.050412  -0.054866   0.808945  -0.101550  -0.017300
     5  H    0.370914  -0.041045  -0.031535  -0.101550   0.728447   0.012237
     6  H   -0.036377   0.004559   0.331853  -0.017300   0.012237   0.498437
 Mulliken charges:
               1
     1  C    0.262010
     2  F   -0.238262
     3  O   -0.322433
     4  H    0.029564
     5  H    0.062532
     6  H    0.206591
 Sum of Mulliken charges =  -0.00000
 Mulliken charges with hydrogens summed into heavy atoms:
               1
     1  C    0.354105
     2  F   -0.238262
     3  O   -0.115843
 Electronic spatial extent (au):  <R**2>=            150.5279
 Charge=              0.0000 electrons
 Dipole moment (field-independent basis, Debye):
    X=             -0.4098    Y=              0.7229    Z=              1.3087  Tot=              1.5502
 Quadrupole moment (field-independent basis, Debye-Ang):
   XX=            -20.3756   YY=            -15.2009   ZZ=            -16.2453
   XY=              1.7009   XZ=             -1.6580   YZ=             -1.4277
 Traceless Quadrupole moment (field-independent basis, Debye-Ang):
   XX=             -3.1017   YY=              2.0731   ZZ=              1.0286
   XY=              1.7009   XZ=             -1.6580   YZ=             -1.4277
 Octapole moment (field-independent basis, Debye-Ang**2):
  XXX=              3.9169  YYY=             -3.4929  ZZZ=              0.6165  XYY=             -0.3936
  XXY=             -2.4751  XXZ=              1.8851  XZZ=              0.5469  YZZ=             -0.8753
  YYZ=              0.7236  XYZ=              1.4254
 Hexadecapole moment (field-independent basis, Debye-Ang**3):
 XXXX=           -102.3372 YYYY=            -38.8115 ZZZZ=            -21.6389 XXXY=              1.6476
 XXXZ=             -2.9020 YYYX=              0.6364 YYYZ=             -2.1772 ZZZX=             -1.3271
 ZZZY=             -1.1007 XXYY=            -20.9986 XXZZ=            -19.5877 YYZZ=             -9.0686
 XXYZ=             -1.9164 YYXZ=             -1.5386 ZZXY=              0.4026
 N-N= 7.918564387672D+01 E-N=-6.672222190890D+02  KE= 2.138713852061D+02
 No NMR shielding tensors so no spin-rotation constants.
 Leave Link  601 at Sun Sep 13 22:07:14 2026, MaxMem=   805306368 cpu:               0.1 elap:               0.2
 (Enter /app1/ia32-64/Gaussian/Rev-C.02/g16/l701.exe)
 ... and contract with generalized density number  0.
 Compute integral first derivatives.
 Leave Link  701 at Sun Sep 13 22:07:14 2026, MaxMem=   805306368 cpu:               0.1 elap:               0.1
 (Enter /app1/ia32-64/Gaussian/Rev-C.02/g16/l702.exe)
 L702 exits ... SP integral derivatives will be done elsewhere.
 Leave Link  702 at Sun Sep 13 22:07:15 2026, MaxMem=   805306368 cpu:               0.0 elap:               0.0
 (Enter /app1/ia32-64/Gaussian/Rev-C.02/g16/l703.exe)
 Integral derivatives from FoFJK, PRISM(SPDF).
 Compute integral first derivatives, UseDBF=F ICtDFT=           0.
 Calling FoFJK, ICntrl=      2127 FMM=F ISym2X=0 I1Cent= 0 IOpClX= 0 NMat=1 NMatS=1 NMatT=0.
 FoFJK:  IHMeth= 1 ICntrl=    2127 DoSepK=F KAlg= 0 I1Cent=           0 FoldK=F
 IRaf=         0 NMat=       1 IRICut=       1 DoRegI=T DoRafI=F ISym2E= 0 IDoP0=0 IntGTp=1.
 FoFCou: FMM=F IPFlag=           0 FMFlag=      100000 FMFlg1=         800
         NFxFlg=           0 DoJE=F BraDBF=F KetDBF=F FulRan=T
         wScrn=  0.000000 ICntrl=      2127 IOpCl=  0 I1Cent=           0 NGrid=           0
         NMat0=    1 NMatS0=      1 NMatT0=    0 NMatD0=    1 NMtDS0=    0 NMtDT0=    0
 Symmetry not used in FoFCou.
 Leave Link  703 at Sun Sep 13 22:07:20 2026, MaxMem=   805306368 cpu:               5.1 elap:               5.1
 (Enter /app1/ia32-64/Gaussian/Rev-C.02/g16/l716.exe)
 Dipole        =-1.61223134D-01 2.84409522D-01 5.14865273D-01
 ***** Axes restored to original set *****
 -------------------------------------------------------------------
 Center     Atomic                   Forces (Hartrees/Bohr)
 Number     Number              X              Y              Z
 -------------------------------------------------------------------
      1        6           0.017982462   -0.005556757   -0.007286082
      2        9          -0.009306254   -0.000342970    0.001922687
      3        8          -0.010984045    0.010093011   -0.003386315
      4        1          -0.004069351   -0.003968525    0.006649811
      5        1           0.005891091    0.002922931    0.002022215
      6        1           0.000486097   -0.003147689    0.000077685
 -------------------------------------------------------------------
 Cartesian Forces:  Max     0.017982462 RMS     0.006935241
 Leave Link  716 at Sun Sep 13 22:07:20 2026, MaxMem=   805306368 cpu:               0.0 elap:               0.0
 (Enter /app1/ia32-64/Gaussian/Rev-C.02/g16/l103.exe)

 GradGradGradGradGradGradGradGradGradGradGradGradGradGradGradGradGradGrad
 Berny optimization.
 FormGI is forming the generalized inverse of G from B-inverse, IUseBI=4.
 Internal  Forces:  Max     0.016123470 RMS     0.006883114
 Search for a local minimum.
 Step number   1 out of a maximum of   25
 All quantities printed in internal units (Hartrees-Bohrs-Radians)
 RMS Force = .68831D-02 SwitMx=.10000D-02 MixMth= 1
 Mixed Optimization -- RFO/linear search
 Second derivative matrix not updated -- first step.
 The second derivative matrix:
                          R1        R2        R3        R4        R5
           R1           0.49102
           R2           0.00000   0.45621
           R3           0.00000   0.00000   0.34813
           R4           0.00000   0.00000   0.00000   0.34813
           R5           0.00000   0.00000   0.00000   0.00000   0.55473
           A1           0.00000   0.00000   0.00000   0.00000   0.00000
           A2           0.00000   0.00000   0.00000   0.00000   0.00000
           A3           0.00000   0.00000   0.00000   0.00000   0.00000
           A4           0.00000   0.00000   0.00000   0.00000   0.00000
           A5           0.00000   0.00000   0.00000   0.00000   0.00000
           A6           0.00000   0.00000   0.00000   0.00000   0.00000
           A7           0.00000   0.00000   0.00000   0.00000   0.00000
           D1           0.00000   0.00000   0.00000   0.00000   0.00000
           D2           0.00000   0.00000   0.00000   0.00000   0.00000
           D3           0.00000   0.00000   0.00000   0.00000   0.00000
                          A1        A2        A3        A4        A5
           A1           0.25000
           A2           0.00000   0.16000
           A3           0.00000   0.00000   0.16000
           A4           0.00000   0.00000   0.00000   0.16000
           A5           0.00000   0.00000   0.00000   0.00000   0.16000
           A6           0.00000   0.00000   0.00000   0.00000   0.00000
           A7           0.00000   0.00000   0.00000   0.00000   0.00000
           D1           0.00000   0.00000   0.00000   0.00000   0.00000
           D2           0.00000   0.00000   0.00000   0.00000   0.00000
           D3           0.00000   0.00000   0.00000   0.00000   0.00000
                          A6        A7        D1        D2        D3
           A6           0.16000
           A7           0.00000   0.16000
           D1           0.00000   0.00000   0.01692
           D2           0.00000   0.00000   0.00000   0.01692
           D3           0.00000   0.00000   0.00000   0.00000   0.01692
 ITU=  0
     Eigenvalues ---    0.01692   0.10604   0.10788   0.16000   0.16000
     Eigenvalues ---    0.16000   0.22689   0.34813   0.34813   0.45621
     Eigenvalues ---    0.49102   0.55473
 RFO step:  Lambda=-3.52034104D-03 EMin= 1.69178039D-02
 Linear search not attempted -- first point.
 Iteration  1 RMS(Cart)=  0.05278387 RMS(Int)=  0.00159420
 Iteration  2 RMS(Cart)=  0.00140661 RMS(Int)=  0.00075452
 Iteration  3 RMS(Cart)=  0.00000059 RMS(Int)=  0.00075452
 ITry= 1 IFail=0 DXMaxC= 1.19D-01 DCOld= 1.00D+10 DXMaxT= 3.00D-01 DXLimC= 3.00D+00 Rises=F
 Variable       Old X    -DE/DX   Delta X   Delta X   Delta X     New X
                                 (Linear)    (Quad)   (Total)
    R1        2.60782   0.00192   0.00000   0.00389   0.00389   2.61171
    R2        2.64562  -0.00896   0.00000  -0.01949  -0.01949   2.62612
    R3        2.05980   0.00287   0.00000   0.00815   0.00815   2.06796
    R4        2.05980  -0.00108   0.00000  -0.00307  -0.00307   2.05673
    R5        1.81414   0.00283   0.00000   0.00508   0.00508   1.81921
    A1        1.88496   0.01612   0.00000   0.06624   0.06574   1.95069
    A2        1.91986  -0.01031   0.00000  -0.05315  -0.05456   1.86530
    A3        1.91986  -0.00598   0.00000  -0.03828  -0.03763   1.88223
    A4        1.91895   0.00769   0.00000   0.05685   0.05634   1.97529
    A5        1.91895  -0.01116   0.00000  -0.06404  -0.06342   1.85553
    A6        1.90131   0.00358   0.00000   0.03181   0.03236   1.93368
    A7        1.88496  -0.00083   0.00000  -0.00511  -0.00511   1.87985
    D1        1.04720   0.00272   0.00000   0.05638   0.05800   1.10520
    D2       -1.04777   0.00095   0.00000   0.04744   0.04592  -1.00186
    D3       -3.14102  -0.00129   0.00000   0.01265   0.01256  -3.12846
         Item               Value     Threshold  Converged?
 Maximum Force            0.016123     0.000015     NO 
 RMS     Force            0.006883     0.000010     NO 
 Maximum Displacement     0.118964     0.000060     NO 
 RMS     Displacement     0.052916     0.000040     NO 
 Predicted change in Energy=-1.805494D-03
 Lowest energy point so far.  Saving SCF results.
 GradGradGradGradGradGradGradGradGradGradGradGradGradGradGradGradGradGrad

 Leave Link  103 at Sun Sep 13 22:07:20 2026, MaxMem=   805306368 cpu:               0.0 elap:               0.1
 (Enter /app1/ia32-64/Gaussian/Rev-C.02/g16/l202.exe)
                          Input orientation:                          
 ---------------------------------------------------------------------
 Center     Atomic      Atomic             Coordinates (Angstroms)
 Number     Number       Type             X           Y           Z
 ---------------------------------------------------------------------
      1          6           0        0.014438   -0.016656    0.002899
      2          9           0       -0.062953    0.002226    1.382658
      3          8           0        1.331167    0.020062   -0.439934
      4          1           0       -0.528470   -0.905230   -0.333569
      5          1           0       -0.458946    0.889614   -0.370114
      6          1           0        1.766663   -0.780710   -0.130299
 ---------------------------------------------------------------------
                    Distance matrix (angstroms):
                    1          2          3          4          5
     1  C    0.000000
     2  F    1.382057   0.000000
     3  O    1.389684   2.294718   0.000000
     4  H    1.094315   1.996401   2.079839   0.000000
     5  H    1.088373   2.004116   1.991357   1.796562   0.000000
     6  H    1.916197   2.499905   0.962687   2.307479   2.792997
                    6
     6  H    0.000000
 Stoichiometry    CH3FO
 Framework group  C1[X(CH3FO)]
 Deg. of freedom    12
 Full point group                 C1      NOp   1
 RotChk:  IX=0 Diff= 4.08D-02
 Largest Abelian subgroup         C1      NOp   1
 Largest concise Abelian subgroup C1      NOp   1
                         Standard orientation:                         
 ---------------------------------------------------------------------
 Center     Atomic      Atomic             Coordinates (Angstroms)
 Number     Number       Type             X           Y           Z
 ---------------------------------------------------------------------
      1          6           0        0.022879    0.507864    0.049885
      2          9           0        1.133163   -0.311308   -0.029537
      3          8           0       -1.157767   -0.207366   -0.110562
      4          1           0        0.082324    1.031354    1.009025
      5          1           0        0.068402    1.212530   -0.778324
      6          1           0       -1.224330   -0.830373    0.620326
 ---------------------------------------------------------------------
 Rotational constants (GHZ):          45.9469920          10.2003003           9.0054690
 Leave Link  202 at Sun Sep 13 22:07:21 2026, MaxMem=   805306368 cpu:               0.0 elap:               0.0
 (Enter /app1/ia32-64/Gaussian/Rev-C.02/g16/l301.exe)
 Standard basis: CC-pVTZ (5D, 7F)
 Ernie: Thresh=  0.10000D-02 Tol=  0.10000D-05 Strict=F.
 Ernie:  9 primitive shells out of 102 were deleted.
 There are   150 symmetry adapted cartesian basis functions of A   symmetry.
 There are   132 symmetry adapted basis functions of A   symmetry.
   132 basis functions,   207 primitive gaussians,   150 cartesian basis functions
    13 alpha electrons       13 beta electrons
       nuclear repulsion energy        78.9726239930 Hartrees.
 IExCor=  402 DFT=T Ex+Corr=B3LYP ExCW=0 ScaHFX=  0.200000
 ScaDFX=  0.800000  0.720000  1.000000  0.810000 ScalE2=  1.000000  1.000000
 IRadAn=      5 IRanWt=     -1 IRanGd=            0 ICorTp=0 IEmpDi=  4
 NAtoms=    6 NActive=    6 NUniq=    6 SFac= 1.00D+00 NAtFMM=   60 NAOKFM=F Big=F
 Integral buffers will be    131072 words long.
 Raffenetti 2 integral format.
 Two-electron integral symmetry is turned on.
 Leave Link  301 at Sun Sep 13 22:07:21 2026, MaxMem=   805306368 cpu:               0.0 elap:               0.1
 (Enter /app1/ia32-64/Gaussian/Rev-C.02/g16/l302.exe)
 NPDir=0 NMtPBC=     1 NCelOv=     1 NCel=       1 NClECP=     1 NCelD=      1
         NCelK=      1 NCelE2=     1 NClLst=     1 CellRange=     0.0.
 One-electron integrals computed using PRISM.
 One-electron integral symmetry used in STVInt
 NBasis=   132 RedAO= T EigKep=  1.91D-03  NBF=   132
 NBsUse=   132 1.00D-06 EigRej= -1.00D+00 NBFU=   132
 Precomputing XC quadrature grid using
 IXCGrd= 4 IRadAn=           5 IRanWt=          -1 IRanGd=           0 AccXCQ= 0.00D+00.
 Generated NRdTot=       0 NPtTot=           0 NUsed=           0 NTot=          32
 NSgBfM=   150   150   150   150   150 MxSgAt=     6 MxSgA2=     6.
 Leave Link  302 at Sun Sep 13 22:07:21 2026, MaxMem=   805306368 cpu:               0.1 elap:               0.1
 (Enter /app1/ia32-64/Gaussian/Rev-C.02/g16/l303.exe)
 DipDrv:  MaxL=1.
 Leave Link  303 at Sun Sep 13 22:07:21 2026, MaxMem=   805306368 cpu:               0.0 elap:               0.0
 (Enter /app1/ia32-64/Gaussian/Rev-C.02/g16/l401.exe)
 Initial guess from the checkpoint file:  "ch2foh.chk"
 B after Tr=     0.000000    0.000000   -0.000000
         Rot=    0.999981    0.005612   -0.002360   -0.000010 Ang=   0.70 deg.
 Guess basis will be translated and rotated to current coordinates.
 JPrj=2 DoOrth=T DoCkMO=T.
 Generating alternative initial guess.
 ExpMin= 1.03D-01 ExpMax= 1.95D+04 ExpMxC= 6.65D+02 IAcc=3 IRadAn=         5 AccDes= 0.00D+00
 Harris functional with IExCor=  402 and IRadAn=       5 diagonalized for initial guess.
 HarFok:  IExCor=  402 AccDes= 0.00D+00 IRadAn=         5 IDoV= 1 UseB2=F ITyADJ=14
 ICtDFT=  3500011 ScaDFX=  1.000000  1.000000  1.000000  1.000000
 FoFCou: FMM=F IPFlag=           0 FMFlag=      100000 FMFlg1=           0
         NFxFlg=           0 DoJE=T BraDBF=F KetDBF=T FulRan=T
         wScrn=  0.000000 ICntrl=       500 IOpCl=  0 I1Cent=   200000004 NGrid=           0
         NMat0=    1 NMatS0=      1 NMatT0=    0 NMatD0=    1 NMtDS0=    0 NMtDT0=    0
 Petite list used in FoFCou.
 Harris En= -215.059317668265    
 Leave Link  401 at Sun Sep 13 22:07:22 2026, MaxMem=   805306368 cpu:               0.8 elap:               0.8
 (Enter /app1/ia32-64/Gaussian/Rev-C.02/g16/l502.exe)
 Keep R1 ints in memory in canonical form, NReq=40547587.
 FoFCou: FMM=F IPFlag=           0 FMFlag=           0 FMFlg1=           0
         NFxFlg=           0 DoJE=F BraDBF=F KetDBF=F FulRan=T
         wScrn=  0.000000 ICntrl=       600 IOpCl=  0 I1Cent=           0 NGrid=           0
         NMat0=    1 NMatS0=   8778 NMatT0=    0 NMatD0=    1 NMtDS0=    0 NMtDT0=    0
 Symmetry not used in FoFCou.
 Two-electron integral symmetry not used.
 Closed shell SCF:
 Using DIIS extrapolation, IDIIS=  1040.
 NGot=   805306368 LenX=   766727867 LenY=   766704926
 Requested convergence on RMS density matrix=1.00D-08 within 128 cycles.
 Requested convergence on MAX density matrix=1.00D-06.
 Requested convergence on             energy=1.00D-06.
 No special actions if energy rises.
 Integral accuracy reduced to 1.0D-05 until final iterations.

 Cycle   1  Pass 0  IDiag  1:
 E= -215.055700871495    
 DIIS: error= 2.15D-03 at cycle   1 NSaved=   1.
 NSaved= 1 IEnMin= 1 EnMin= -215.055700871495     IErMin= 1 ErrMin= 2.15D-03
 ErrMax= 2.15D-03  0.00D+00 EMaxC= 1.00D-01 BMatC= 1.43D-03 BMatP= 1.43D-03
 IDIUse=3 WtCom= 9.78D-01 WtEn= 2.15D-02
 Coeff-Com:  0.100D+01
 Coeff-En:   0.100D+01
 Coeff:      0.100D+01
 Gap=     0.953 Goal=   None    Shift=    0.000
 GapD=    0.953 DampG=2.000 DampE=1.000 DampFc=2.0000 IDamp=-1.
 RMSDP=3.12D-04 MaxDP=4.55D-03              OVMax= 1.37D-02

 Cycle   2  Pass 0  IDiag  1:
 E= -215.057371104162     Delta-E=       -0.001670232667 Rises=F Damp=F
 DIIS: error= 4.29D-04 at cycle   2 NSaved=   2.
 NSaved= 2 IEnMin= 2 EnMin= -215.057371104162     IErMin= 2 ErrMin= 4.29D-04
 ErrMax= 4.29D-04  0.00D+00 EMaxC= 1.00D-01 BMatC= 5.23D-05 BMatP= 1.43D-03
 IDIUse=3 WtCom= 9.96D-01 WtEn= 4.29D-03
 Coeff-Com:  0.794D-03 0.999D+00
 Coeff-En:   0.000D+00 0.100D+01
 Coeff:      0.791D-03 0.999D+00
 Gap=     0.346 Goal=   None    Shift=    0.000
 RMSDP=6.09D-05 MaxDP=1.01D-03 DE=-1.67D-03 OVMax= 2.93D-03

 Cycle   3  Pass 0  IDiag  1:
 E= -215.057351812875     Delta-E=        0.000019291287 Rises=F Damp=F
 DIIS: error= 5.95D-04 at cycle   3 NSaved=   3.
 NSaved= 3 IEnMin= 2 EnMin= -215.057371104162     IErMin= 2 ErrMin= 4.29D-04
 ErrMax= 5.95D-04  0.00D+00 EMaxC= 1.00D-01 BMatC= 1.00D-04 BMatP= 5.23D-05
 IDIUse=3 WtCom= 2.91D-01 WtEn= 7.09D-01
 Coeff-Com: -0.342D-01 0.608D+00 0.426D+00
 Coeff-En:   0.000D+00 0.604D+00 0.396D+00
 Coeff:     -0.993D-02 0.605D+00 0.405D+00
 Gap=     0.347 Goal=   None    Shift=    0.000
 RMSDP=3.62D-05 MaxDP=6.17D-04 DE= 1.93D-05 OVMax= 1.64D-03

 Cycle   4  Pass 0  IDiag  1:
 E= -215.057410312897     Delta-E=       -0.000058500022 Rises=F Damp=F
 DIIS: error= 7.65D-05 at cycle   4 NSaved=   4.
 NSaved= 4 IEnMin= 4 EnMin= -215.057410312897     IErMin= 4 ErrMin= 7.65D-05
 ErrMax= 7.65D-05  0.00D+00 EMaxC= 1.00D-01 BMatC= 8.18D-07 BMatP= 5.23D-05
 IDIUse=1 WtCom= 1.00D+00 WtEn= 0.00D+00
 Coeff-Com: -0.789D-02 0.814D-01 0.112D+00 0.815D+00
 Coeff:     -0.789D-02 0.814D-01 0.112D+00 0.815D+00
 Gap=     0.347 Goal=   None    Shift=    0.000
 RMSDP=4.65D-06 MaxDP=7.19D-05 DE=-5.85D-05 OVMax= 2.19D-04

 Initial convergence to 1.0D-05 achieved.  Increase integral accuracy.
 Cycle   5  Pass 1  IDiag  1:
 E= -215.057411712168     Delta-E=       -0.000001399271 Rises=F Damp=F
 DIIS: error= 2.37D-05 at cycle   1 NSaved=   1.
 NSaved= 1 IEnMin= 1 EnMin= -215.057411712168     IErMin= 1 ErrMin= 2.37D-05
 ErrMax= 2.37D-05  0.00D+00 EMaxC= 1.00D-01 BMatC= 8.97D-08 BMatP= 8.97D-08
 IDIUse=1 WtCom= 1.00D+00 WtEn= 0.00D+00
 Coeff-Com:  0.100D+01
 Coeff:      0.100D+01
 Gap=     0.347 Goal=   None    Shift=    0.000
 RMSDP=4.65D-06 MaxDP=7.19D-05 DE=-1.40D-06 OVMax= 1.33D-04

 Cycle   6  Pass 1  IDiag  1:
 E= -215.057411670948     Delta-E=        0.000000041220 Rises=F Damp=F
 DIIS: error= 2.73D-05 at cycle   2 NSaved=   2.
 NSaved= 2 IEnMin= 1 EnMin= -215.057411712168     IErMin= 1 ErrMin= 2.37D-05
 ErrMax= 2.73D-05  0.00D+00 EMaxC= 1.00D-01 BMatC= 1.49D-07 BMatP= 8.97D-08
 IDIUse=1 WtCom= 1.00D+00 WtEn= 0.00D+00
 Coeff-Com:  0.565D+00 0.435D+00
 Coeff:      0.565D+00 0.435D+00
 Gap=     0.347 Goal=   None    Shift=    0.000
 RMSDP=1.36D-06 MaxDP=3.57D-05 DE= 4.12D-08 OVMax= 7.45D-05

 Cycle   7  Pass 1  IDiag  1:
 E= -215.057411779744     Delta-E=       -0.000000108796 Rises=F Damp=F
 DIIS: error= 4.23D-06 at cycle   3 NSaved=   3.
 NSaved= 3 IEnMin= 3 EnMin= -215.057411779744     IErMin= 3 ErrMin= 4.23D-06
 ErrMax= 4.23D-06  0.00D+00 EMaxC= 1.00D-01 BMatC= 2.78D-09 BMatP= 8.97D-08
 IDIUse=1 WtCom= 1.00D+00 WtEn= 0.00D+00
 Coeff-Com:  0.249D+00 0.217D+00 0.533D+00
 Coeff:      0.249D+00 0.217D+00 0.533D+00
 Gap=     0.347 Goal=   None    Shift=    0.000
 RMSDP=2.46D-07 MaxDP=5.26D-06 DE=-1.09D-07 OVMax= 1.18D-05

 Cycle   8  Pass 1  IDiag  1:
 E= -215.057411781424     Delta-E=       -0.000000001681 Rises=F Damp=F
 DIIS: error= 9.29D-07 at cycle   4 NSaved=   4.
 NSaved= 4 IEnMin= 4 EnMin= -215.057411781424     IErMin= 4 ErrMin= 9.29D-07
 ErrMax= 9.29D-07  0.00D+00 EMaxC= 1.00D-01 BMatC= 1.43D-10 BMatP= 2.78D-09
 IDIUse=1 WtCom= 1.00D+00 WtEn= 0.00D+00
 Coeff-Com:  0.440D-01 0.454D-01 0.219D+00 0.691D+00
 Coeff:      0.440D-01 0.454D-01 0.219D+00 0.691D+00
 Gap=     0.347 Goal=   None    Shift=    0.000
 RMSDP=6.43D-08 MaxDP=1.31D-06 DE=-1.68D-09 OVMax= 2.87D-06

 Cycle   9  Pass 1  IDiag  1:
 E= -215.057411781529     Delta-E=       -0.000000000105 Rises=F Damp=F
 DIIS: error= 2.81D-07 at cycle   5 NSaved=   5.
 NSaved= 5 IEnMin= 5 EnMin= -215.057411781529     IErMin= 5 ErrMin= 2.81D-07
 ErrMax= 2.81D-07  0.00D+00 EMaxC= 1.00D-01 BMatC= 1.56D-11 BMatP= 1.43D-10
 IDIUse=1 WtCom= 1.00D+00 WtEn= 0.00D+00
 Coeff-Com: -0.558D-03 0.283D-02 0.552D-01 0.310D+00 0.632D+00
 Coeff:     -0.558D-03 0.283D-02 0.552D-01 0.310D+00 0.632D+00
 Gap=     0.347 Goal=   None    Shift=    0.000
 RMSDP=2.03D-08 MaxDP=4.06D-07 DE=-1.05D-10 OVMax= 9.35D-07

 Cycle  10  Pass 1  IDiag  1:
 E= -215.057411781535     Delta-E=       -0.000000000005 Rises=F Damp=F
 DIIS: error= 1.47D-07 at cycle   6 NSaved=   6.
 NSaved= 6 IEnMin= 6 EnMin= -215.057411781535     IErMin= 6 ErrMin= 1.47D-07
 ErrMax= 1.47D-07  0.00D+00 EMaxC= 1.00D-01 BMatC= 4.17D-12 BMatP= 1.56D-11
 IDIUse=1 WtCom= 1.00D+00 WtEn= 0.00D+00
 Coeff-Com: -0.764D-02-0.575D-02-0.118D-02 0.863D-01 0.382D+00 0.546D+00
 Coeff:     -0.764D-02-0.575D-02-0.118D-02 0.863D-01 0.382D+00 0.546D+00
 Gap=     0.347 Goal=   None    Shift=    0.000
 RMSDP=7.81D-09 MaxDP=1.63D-07 DE=-5.29D-12 OVMax= 3.67D-07

 SCF Done:  E(RB3LYP) =  -215.057411782     A.U. after   10 cycles
            NFock= 10  Conv=0.78D-08     -V/T= 2.0055
 KE= 2.138790053811D+02 PE=-6.667868449838D+02 EE= 1.588778038282D+02
 Leave Link  502 at Sun Sep 13 22:07:33 2026, MaxMem=   805306368 cpu:               7.5 elap:              11.0
 (Enter /app1/ia32-64/Gaussian/Rev-C.02/g16/l701.exe)
 ... and contract with generalized density number  0.
 Compute integral first derivatives.
 Leave Link  701 at Sun Sep 13 22:07:35 2026, MaxMem=   805306368 cpu:               0.1 elap:               1.8
 (Enter /app1/ia32-64/Gaussian/Rev-C.02/g16/l702.exe)
 L702 exits ... SP integral derivatives will be done elsewhere.
 Leave Link  702 at Sun Sep 13 22:07:35 2026, MaxMem=   805306368 cpu:               0.0 elap:               0.0
 (Enter /app1/ia32-64/Gaussian/Rev-C.02/g16/l703.exe)
 Integral derivatives from FoFJK, PRISM(SPDF).
 Compute integral first derivatives, UseDBF=F ICtDFT=           0.
 Calling FoFJK, ICntrl=      2127 FMM=F ISym2X=0 I1Cent= 0 IOpClX= 0 NMat=1 NMatS=1 NMatT=0.
 FoFJK:  IHMeth= 1 ICntrl=    2127 DoSepK=F KAlg= 0 I1Cent=           0 FoldK=F
 IRaf=         0 NMat=       1 IRICut=       1 DoRegI=T DoRafI=F ISym2E= 0 IDoP0=0 IntGTp=1.
 FoFCou: FMM=F IPFlag=           0 FMFlag=      100000 FMFlg1=         800
         NFxFlg=           0 DoJE=F BraDBF=F KetDBF=F FulRan=T
         wScrn=  0.000000 ICntrl=      2127 IOpCl=  0 I1Cent=           0 NGrid=           0
         NMat0=    1 NMatS0=      1 NMatT0=    0 NMatD0=    1 NMtDS0=    0 NMtDT0=    0
 Symmetry not used in FoFCou.
 Leave Link  703 at Sun Sep 13 22:07:40 2026, MaxMem=   805306368 cpu:               5.1 elap:               5.1
 (Enter /app1/ia32-64/Gaussian/Rev-C.02/g16/l716.exe)
 Dipole        =-2.24815598D-01 2.46568440D-01 5.31242527D-01
 ***** Axes restored to original set *****
 -------------------------------------------------------------------
 Center     Atomic                   Forces (Hartrees/Bohr)
 Number     Number              X              Y              Z
 -------------------------------------------------------------------
      1        6           0.001784450    0.004726714   -0.008472499
      2        9           0.001476815   -0.000766418    0.003330216
      3        8          -0.006413877   -0.001990782    0.005825541
      4        1           0.001691574   -0.001006693    0.001077765
      5        1          -0.000739638    0.000161284   -0.000247295
      6        1           0.002200676   -0.001124105   -0.001513727
 -------------------------------------------------------------------
 Cartesian Forces:  Max     0.008472499 RMS     0.003368767
 Leave Link  716 at Sun Sep 13 22:07:42 2026, MaxMem=   805306368 cpu:               0.0 elap:               0.0
 (Enter /app1/ia32-64/Gaussian/Rev-C.02/g16/l103.exe)

 GradGradGradGradGradGradGradGradGradGradGradGradGradGradGradGradGradGrad
 Berny optimization.
 Using GEDIIS/GDIIS optimizer.
 FormGI is forming the generalized inverse of G from B-inverse, IUseBI=4.
 Internal  Forces:  Max     0.005448335 RMS     0.002478012
 Search for a local minimum.
 Step number   2 out of a maximum of   25
 All quantities printed in internal units (Hartrees-Bohrs-Radians)
 RMS Force = .24780D-02 SwitMx=.10000D-02 MixMth= 1
 Mixed Optimization -- RFO/linear search
 Update second derivatives using D2CorX and points    1    2
 DE= -1.58D-03 DEPred=-1.81D-03 R= 8.76D-01
 TightC=F SS=  1.41D+00  RLast= 1.52D-01 DXNew= 5.0454D-01 4.5606D-01
 Trust test= 8.76D-01 RLast= 1.52D-01 DXMaxT set to 4.56D-01
 The second derivative matrix:
                          R1        R2        R3        R4        R5
           R1           0.49040
           R2           0.00615   0.43630
           R3          -0.00268   0.00444   0.34846
           R4           0.00115  -0.00130  -0.00047   0.34847
           R5          -0.00204   0.00605  -0.00117   0.00030   0.55292
           A1          -0.01583   0.02480   0.00278  -0.00312  -0.00644
           A2           0.00842  -0.01313  -0.00151   0.00168   0.00340
           A3           0.00590  -0.00882  -0.00126   0.00127   0.00225
           A4          -0.00823   0.01482   0.00041  -0.00115  -0.00401
           A5           0.01028  -0.01395  -0.00297   0.00256   0.00343
           A6          -0.00367   0.01136  -0.00238   0.00065  -0.00343
           A7           0.00210   0.00229  -0.00337   0.00178  -0.00108
           D1          -0.00180  -0.00082   0.00227  -0.00125   0.00053
           D2           0.00014   0.00356  -0.00206   0.00096  -0.00125
           D3           0.00046   0.00211  -0.00161   0.00079  -0.00079
                          A1        A2        A3        A4        A5
           A1           0.27107
           A2          -0.01142   0.16619
           A3          -0.00919   0.00497   0.16393
           A4           0.00476  -0.00264  -0.00245   0.15935
           A5          -0.02065   0.01113   0.00859  -0.00661   0.17805
           A6          -0.01318   0.00698   0.00466  -0.00802   0.00725
           A7          -0.02074   0.01107   0.00796  -0.00970   0.01469
           D1           0.01410  -0.00753  -0.00544   0.00646  -0.01015
           D2          -0.01237   0.00659   0.00466  -0.00620   0.00830
           D3          -0.00974   0.00519   0.00370  -0.00475   0.00668
                          A6        A7        D1        D2        D3
           A6           0.15353
           A7          -0.00165   0.16589
           D1           0.00071  -0.00441   0.02018
           D2          -0.00218   0.00232  -0.00185   0.01749
           D3          -0.00134   0.00220  -0.00170   0.00071   0.01767
 ITU=  1  0
 Use linear search instead of GDIIS.
     Eigenvalues ---    0.01626   0.09706   0.11004   0.15208   0.16000
     Eigenvalues ---    0.17616   0.26882   0.34794   0.34910   0.44323
     Eigenvalues ---    0.49295   0.55345
 RFO step:  Lambda=-3.80995925D-04 EMin= 1.62607272D-02
 Quartic linear search produced a step of -0.08845.
 Iteration  1 RMS(Cart)=  0.01484823 RMS(Int)=  0.00032796
 Iteration  2 RMS(Cart)=  0.00028454 RMS(Int)=  0.00003969
 Iteration  3 RMS(Cart)=  0.00000011 RMS(Int)=  0.00003969
 ITry= 1 IFail=0 DXMaxC= 2.94D-02 DCOld= 1.00D+10 DXMaxT= 4.56D-01 DXLimC= 3.00D+00 Rises=F
 Variable       Old X    -DE/DX   Delta X   Delta X   Delta X     New X
                                 (Linear)    (Quad)   (Total)
    R1        2.61171   0.00323  -0.00034   0.00674   0.00640   2.61811
    R2        2.62612  -0.00545   0.00172  -0.01467  -0.01295   2.61318
    R3        2.06796  -0.00035  -0.00072   0.00068  -0.00004   2.06791
    R4        2.05673   0.00054   0.00027   0.00081   0.00108   2.05781
    R5        1.81921   0.00144  -0.00045   0.00336   0.00291   1.82213
    A1        1.95069  -0.00350  -0.00581  -0.00244  -0.00829   1.94240
    A2        1.86530   0.00016   0.00483  -0.01836  -0.01354   1.85176
    A3        1.88223   0.00150   0.00333   0.00258   0.00584   1.88807
    A4        1.97529  -0.00174  -0.00498  -0.00186  -0.00688   1.96840
    A5        1.85553   0.00246   0.00561   0.00407   0.00960   1.86513
    A6        1.93368   0.00128  -0.00286   0.01697   0.01404   1.94771
    A7        1.87985   0.00401   0.00045   0.02172   0.02217   1.90202
    D1        1.10520  -0.00098  -0.00513   0.03400   0.02882   1.13402
    D2       -1.00186   0.00265  -0.00406   0.06107   0.05706  -0.94479
    D3       -3.12846   0.00042  -0.00111   0.03825   0.03713  -3.09132
         Item               Value     Threshold  Converged?
 Maximum Force            0.005448     0.000015     NO 
 RMS     Force            0.002478     0.000010     NO 
 Maximum Displacement     0.029376     0.000060     NO 
 RMS     Displacement     0.014825     0.000040     NO 
 Predicted change in Energy=-2.080410D-04
 Lowest energy point so far.  Saving SCF results.
 GradGradGradGradGradGradGradGradGradGradGradGradGradGradGradGradGradGrad

 Leave Link  103 at Sun Sep 13 22:07:42 2026, MaxMem=   805306368 cpu:               0.0 elap:               0.2
 (Enter /app1/ia32-64/Gaussian/Rev-C.02/g16/l202.exe)
                          Input orientation:                          
 ---------------------------------------------------------------------
 Center     Atomic      Atomic             Coordinates (Angstroms)
 Number     Number       Type             X           Y           Z
 ---------------------------------------------------------------------
      1          6           0        0.013162   -0.009788    0.000778
      2          9           0       -0.068316    0.002703    1.383766
      3          8           0        1.328433    0.021517   -0.425030
      4          1           0       -0.516794   -0.909593   -0.326287
      5          1           0       -0.462394    0.894579   -0.375742
      6          1           0        1.767807   -0.790112   -0.145845
 ---------------------------------------------------------------------
                    Distance matrix (angstroms):
                    1          2          3          4          5
     1  C    0.000000
     2  F    1.385442   0.000000
     3  O    1.382834   2.285389   0.000000
     4  H    1.094291   1.989396   2.069197   0.000000
     5  H    1.088945   2.011618   1.992920   1.805670   0.000000
     6  H    1.925923   2.517858   0.964227   2.294828   2.804431
                    6
     6  H    0.000000
 Stoichiometry    CH3FO
 Framework group  C1[X(CH3FO)]
 Deg. of freedom    12
 Full point group                 C1      NOp   1
 RotChk:  IX=0 Diff= 1.42D-02
 Largest Abelian subgroup         C1      NOp   1
 Largest concise Abelian subgroup C1      NOp   1
                         Standard orientation:                         
 ---------------------------------------------------------------------
 Center     Atomic      Atomic             Coordinates (Angstroms)
 Number     Number       Type             X           Y           Z
 ---------------------------------------------------------------------
      1          6           0        0.019274    0.510783    0.049858
      2          9           0        1.131618   -0.311291   -0.029745
      3          8           0       -1.149953   -0.209239   -0.113560
      4          1           0        0.078319    1.007820    1.022967
      5          1           0        0.066562    1.226641   -0.769356
      6          1           0       -1.245460   -0.823629    0.623419
 ---------------------------------------------------------------------
 Rotational constants (GHZ):          45.7370783          10.2581438           9.0509982
 Leave Link  202 at Sun Sep 13 22:07:42 2026, MaxMem=   805306368 cpu:               0.0 elap:               0.0
 (Enter /app1/ia32-64/Gaussian/Rev-C.02/g16/l301.exe)
 Standard basis: CC-pVTZ (5D, 7F)
 Ernie: Thresh=  0.10000D-02 Tol=  0.10000D-05 Strict=F.
 Ernie:  9 primitive shells out of 102 were deleted.
 There are   150 symmetry adapted cartesian basis functions of A   symmetry.
 There are   132 symmetry adapted basis functions of A   symmetry.
   132 basis functions,   207 primitive gaussians,   150 cartesian basis functions
    13 alpha electrons       13 beta electrons
       nuclear repulsion energy        79.0573262635 Hartrees.
 IExCor=  402 DFT=T Ex+Corr=B3LYP ExCW=0 ScaHFX=  0.200000
 ScaDFX=  0.800000  0.720000  1.000000  0.810000 ScalE2=  1.000000  1.000000
 IRadAn=      5 IRanWt=     -1 IRanGd=            0 ICorTp=0 IEmpDi=  4
 NAtoms=    6 NActive=    6 NUniq=    6 SFac= 1.00D+00 NAtFMM=   60 NAOKFM=F Big=F
 Integral buffers will be    131072 words long.
 Raffenetti 2 integral format.
 Two-electron integral symmetry is turned on.
 Leave Link  301 at Sun Sep 13 22:07:43 2026, MaxMem=   805306368 cpu:               0.0 elap:               0.3
 (Enter /app1/ia32-64/Gaussian/Rev-C.02/g16/l302.exe)
 NPDir=0 NMtPBC=     1 NCelOv=     1 NCel=       1 NClECP=     1 NCelD=      1
         NCelK=      1 NCelE2=     1 NClLst=     1 CellRange=     0.0.
 One-electron integrals computed using PRISM.
 One-electron integral symmetry used in STVInt
 NBasis=   132 RedAO= T EigKep=  1.91D-03  NBF=   132
 NBsUse=   132 1.00D-06 EigRej= -1.00D+00 NBFU=   132
 Precomputing XC quadrature grid using
 IXCGrd= 4 IRadAn=           5 IRanWt=          -1 IRanGd=           0 AccXCQ= 0.00D+00.
 Generated NRdTot=       0 NPtTot=           0 NUsed=           0 NTot=          32
 NSgBfM=   150   150   150   150   150 MxSgAt=     6 MxSgA2=     6.
 Leave Link  302 at Sun Sep 13 22:07:43 2026, MaxMem=   805306368 cpu:               0.1 elap:               0.1
 (Enter /app1/ia32-64/Gaussian/Rev-C.02/g16/l303.exe)
 DipDrv:  MaxL=1.
 Leave Link  303 at Sun Sep 13 22:07:43 2026, MaxMem=   805306368 cpu:               0.0 elap:               0.0
 (Enter /app1/ia32-64/Gaussian/Rev-C.02/g16/l401.exe)
 Initial guess from the checkpoint file:  "ch2foh.chk"
 B after Tr=    -0.000000   -0.000000    0.000000
         Rot=    0.999994   -0.003456    0.000907   -0.000288 Ang=  -0.41 deg.
 Guess basis will be translated and rotated to current coordinates.
 JPrj=2 DoOrth=T DoCkMO=T.
 Generating alternative initial guess.
 ExpMin= 1.03D-01 ExpMax= 1.95D+04 ExpMxC= 6.65D+02 IAcc=3 IRadAn=         5 AccDes= 0.00D+00
 Harris functional with IExCor=  402 and IRadAn=       5 diagonalized for initial guess.
 HarFok:  IExCor=  402 AccDes= 0.00D+00 IRadAn=         5 IDoV= 1 UseB2=F ITyADJ=14
 ICtDFT=  3500011 ScaDFX=  1.000000  1.000000  1.000000  1.000000
 FoFCou: FMM=F IPFlag=           0 FMFlag=      100000 FMFlg1=           0
         NFxFlg=           0 DoJE=T BraDBF=F KetDBF=T FulRan=T
         wScrn=  0.000000 ICntrl=       500 IOpCl=  0 I1Cent=   200000004 NGrid=           0
         NMat0=    1 NMatS0=      1 NMatT0=    0 NMatD0=    1 NMtDS0=    0 NMtDT0=    0
 Petite list used in FoFCou.
 Harris En= -215.059779971346    
 Leave Link  401 at Sun Sep 13 22:07:44 2026, MaxMem=   805306368 cpu:               0.8 elap:               0.8
 (Enter /app1/ia32-64/Gaussian/Rev-C.02/g16/l502.exe)
 Keep R1 ints in memory in canonical form, NReq=40547573.
 FoFCou: FMM=F IPFlag=           0 FMFlag=           0 FMFlg1=           0
         NFxFlg=           0 DoJE=F BraDBF=F KetDBF=F FulRan=T
         wScrn=  0.000000 ICntrl=       600 IOpCl=  0 I1Cent=           0 NGrid=           0
         NMat0=    1 NMatS0=   8778 NMatT0=    0 NMatD0=    1 NMtDS0=    0 NMtDT0=    0
 Symmetry not used in FoFCou.
 Two-electron integral symmetry not used.
 Closed shell SCF:
 Using DIIS extrapolation, IDIIS=  1040.
 NGot=   805306368 LenX=   766727867 LenY=   766704926
 Requested convergence on RMS density matrix=1.00D-08 within 128 cycles.
 Requested convergence on MAX density matrix=1.00D-06.
 Requested convergence on             energy=1.00D-06.
 No special actions if energy rises.
 Integral accuracy reduced to 1.0D-05 until final iterations.

 Cycle   1  Pass 0  IDiag  1:
 E= -215.057447129797    
 DIIS: error= 1.01D-03 at cycle   1 NSaved=   1.
 NSaved= 1 IEnMin= 1 EnMin= -215.057447129797     IErMin= 1 ErrMin= 1.01D-03
 ErrMax= 1.01D-03  0.00D+00 EMaxC= 1.00D-01 BMatC= 2.11D-04 BMatP= 2.11D-04
 IDIUse=3 WtCom= 9.90D-01 WtEn= 1.01D-02
 Coeff-Com:  0.100D+01
 Coeff-En:   0.100D+01
 Coeff:      0.100D+01
 Gap=     0.953 Goal=   None    Shift=    0.000
 GapD=    0.953 DampG=2.000 DampE=1.000 DampFc=2.0000 IDamp=-1.
 RMSDP=1.17D-04 MaxDP=1.81D-03              OVMax= 5.96D-03

 Cycle   2  Pass 0  IDiag  1:
 E= -215.057659118779     Delta-E=       -0.000211988982 Rises=F Damp=F
 DIIS: error= 2.17D-04 at cycle   2 NSaved=   2.
 NSaved= 2 IEnMin= 2 EnMin= -215.057659118779     IErMin= 2 ErrMin= 2.17D-04
 ErrMax= 2.17D-04  0.00D+00 EMaxC= 1.00D-01 BMatC= 1.29D-05 BMatP= 2.11D-04
 IDIUse=3 WtCom= 9.98D-01 WtEn= 2.17D-03
 Coeff-Com:  0.494D-01 0.951D+00
 Coeff-En:   0.000D+00 0.100D+01
 Coeff:      0.493D-01 0.951D+00
 Gap=     0.346 Goal=   None    Shift=    0.000
 RMSDP=2.61D-05 MaxDP=5.19D-04 DE=-2.12D-04 OVMax= 1.17D-03

 Cycle   3  Pass 0  IDiag  1:
 E= -215.057654344484     Delta-E=        0.000004774295 Rises=F Damp=F
 DIIS: error= 2.90D-04 at cycle   3 NSaved=   3.
 NSaved= 3 IEnMin= 2 EnMin= -215.057659118779     IErMin= 2 ErrMin= 2.17D-04
 ErrMax= 2.90D-04  0.00D+00 EMaxC= 1.00D-01 BMatC= 2.23D-05 BMatP= 1.29D-05
 IDIUse=3 WtCom= 3.70D-01 WtEn= 6.30D-01
 Coeff-Com: -0.259D-01 0.583D+00 0.443D+00
 Coeff-En:   0.000D+00 0.611D+00 0.389D+00
 Coeff:     -0.957D-02 0.601D+00 0.409D+00
 Gap=     0.346 Goal=   None    Shift=    0.000
 RMSDP=1.64D-05 MaxDP=2.98D-04 DE= 4.77D-06 OVMax= 7.39D-04

 Cycle   4  Pass 0  IDiag  1:
 E= -215.057666834226     Delta-E=       -0.000012489742 Rises=F Damp=F
 DIIS: error= 2.62D-05 at cycle   4 NSaved=   4.
 NSaved= 4 IEnMin= 4 EnMin= -215.057666834226     IErMin= 4 ErrMin= 2.62D-05
 ErrMax= 2.62D-05  0.00D+00 EMaxC= 1.00D-01 BMatC= 8.78D-08 BMatP= 1.29D-05
 IDIUse=1 WtCom= 1.00D+00 WtEn= 0.00D+00
 Coeff-Com: -0.786D-02 0.125D+00 0.106D+00 0.777D+00
 Coeff:     -0.786D-02 0.125D+00 0.106D+00 0.777D+00
 Gap=     0.346 Goal=   None    Shift=    0.000
 RMSDP=2.15D-06 MaxDP=4.39D-05 DE=-1.25D-05 OVMax= 1.19D-04

 Initial convergence to 1.0D-05 achieved.  Increase integral accuracy.
 Cycle   5  Pass 1  IDiag  1:
 E= -215.057667474110     Delta-E=       -0.000000639884 Rises=F Damp=F
 DIIS: error= 9.05D-06 at cycle   1 NSaved=   1.
 NSaved= 1 IEnMin= 1 EnMin= -215.057667474110     IErMin= 1 ErrMin= 9.05D-06
 ErrMax= 9.05D-06  0.00D+00 EMaxC= 1.00D-01 BMatC= 1.87D-08 BMatP= 1.87D-08
 IDIUse=1 WtCom= 1.00D+00 WtEn= 0.00D+00
 Coeff-Com:  0.100D+01
 Coeff:      0.100D+01
 Gap=     0.346 Goal=   None    Shift=    0.000
 RMSDP=2.15D-06 MaxDP=4.39D-05 DE=-6.40D-07 OVMax= 5.14D-05

 Cycle   6  Pass 1  IDiag  1:
 E= -215.057667460325     Delta-E=        0.000000013786 Rises=F Damp=F
 DIIS: error= 1.32D-05 at cycle   2 NSaved=   2.
 NSaved= 2 IEnMin= 1 EnMin= -215.057667474110     IErMin= 1 ErrMin= 9.05D-06
 ErrMax= 1.32D-05  0.00D+00 EMaxC= 1.00D-01 BMatC= 4.01D-08 BMatP= 1.87D-08
 IDIUse=1 WtCom= 1.00D+00 WtEn= 0.00D+00
 Coeff-Com:  0.597D+00 0.403D+00
 Coeff:      0.597D+00 0.403D+00
 Gap=     0.346 Goal=   None    Shift=    0.000
 RMSDP=6.67D-07 MaxDP=1.48D-05 DE= 1.38D-08 OVMax= 3.64D-05

 Cycle   7  Pass 1  IDiag  1:
 E= -215.057667486405     Delta-E=       -0.000000026081 Rises=F Damp=F
 DIIS: error= 1.07D-06 at cycle   3 NSaved=   3.
 NSaved= 3 IEnMin= 3 EnMin= -215.057667486405     IErMin= 3 ErrMin= 1.07D-06
 ErrMax= 1.07D-06  0.00D+00 EMaxC= 1.00D-01 BMatC= 2.24D-10 BMatP= 1.87D-08
 IDIUse=1 WtCom= 1.00D+00 WtEn= 0.00D+00
 Coeff-Com:  0.163D+00 0.136D+00 0.701D+00
 Coeff:      0.163D+00 0.136D+00 0.701D+00
 Gap=     0.346 Goal=   None    Shift=    0.000
 RMSDP=8.55D-08 MaxDP=1.40D-06 DE=-2.61D-08 OVMax= 3.94D-06

 Cycle   8  Pass 1  IDiag  1:
 E= -215.057667486531     Delta-E=       -0.000000000126 Rises=F Damp=F
 DIIS: error= 5.41D-07 at cycle   4 NSaved=   4.
 NSaved= 4 IEnMin= 4 EnMin= -215.057667486531     IErMin= 4 ErrMin= 5.41D-07
 ErrMax= 5.41D-07  0.00D+00 EMaxC= 1.00D-01 BMatC= 4.76D-11 BMatP= 2.24D-10
 IDIUse=1 WtCom= 1.00D+00 WtEn= 0.00D+00
 Coeff-Com:  0.289D-01 0.337D-01 0.359D+00 0.578D+00
 Coeff:      0.289D-01 0.337D-01 0.359D+00 0.578D+00
 Gap=     0.346 Goal=   None    Shift=    0.000
 RMSDP=3.02D-08 MaxDP=5.63D-07 DE=-1.26D-10 OVMax= 1.65D-06

 Cycle   9  Pass 1  IDiag  1:
 E= -215.057667486561     Delta-E=       -0.000000000030 Rises=F Damp=F
 DIIS: error= 1.47D-07 at cycle   5 NSaved=   5.
 NSaved= 5 IEnMin= 5 EnMin= -215.057667486561     IErMin= 5 ErrMin= 1.47D-07
 ErrMax= 1.47D-07  0.00D+00 EMaxC= 1.00D-01 BMatC= 5.38D-12 BMatP= 4.76D-11
 IDIUse=1 WtCom= 1.00D+00 WtEn= 0.00D+00
 Coeff-Com: -0.718D-02-0.454D-03 0.105D+00 0.310D+00 0.593D+00
 Coeff:     -0.718D-02-0.454D-03 0.105D+00 0.310D+00 0.593D+00
 Gap=     0.346 Goal=   None    Shift=    0.000
 RMSDP=1.08D-08 MaxDP=2.13D-07 DE=-2.99D-11 OVMax= 4.23D-07

 Cycle  10  Pass 1  IDiag  1:
 E= -215.057667486564     Delta-E=       -0.000000000003 Rises=F Damp=F
 DIIS: error= 4.32D-08 at cycle   6 NSaved=   6.
 NSaved= 6 IEnMin= 6 EnMin= -215.057667486564     IErMin= 6 ErrMin= 4.32D-08
 ErrMax= 4.32D-08  0.00D+00 EMaxC= 1.00D-01 BMatC= 3.06D-13 BMatP= 5.38D-12
 IDIUse=1 WtCom= 1.00D+00 WtEn= 0.00D+00
 Coeff-Com: -0.594D-02-0.266D-02 0.308D-01 0.122D+00 0.289D+00 0.567D+00
 Coeff:     -0.594D-02-0.266D-02 0.308D-01 0.122D+00 0.289D+00 0.567D+00
 Gap=     0.346 Goal=   None    Shift=    0.000
 RMSDP=2.90D-09 MaxDP=5.26D-08 DE=-2.56D-12 OVMax= 1.11D-07

 SCF Done:  E(RB3LYP) =  -215.057667487     A.U. after   10 cycles
            NFock= 10  Conv=0.29D-08     -V/T= 2.0055
 KE= 2.138823833591D+02 PE=-6.669769663600D+02 EE= 1.589795892508D+02
 Leave Link  502 at Sun Sep 13 22:07:56 2026, MaxMem=   805306368 cpu:               7.5 elap:              11.0
 (Enter /app1/ia32-64/Gaussian/Rev-C.02/g16/l701.exe)
 ... and contract with generalized density number  0.
 Compute integral first derivatives.
 Leave Link  701 at Sun Sep 13 22:07:57 2026, MaxMem=   805306368 cpu:               0.1 elap:               0.1
 (Enter /app1/ia32-64/Gaussian/Rev-C.02/g16/l702.exe)
 L702 exits ... SP integral derivatives will be done elsewhere.
 Leave Link  702 at Sun Sep 13 22:07:57 2026, MaxMem=   805306368 cpu:               0.0 elap:               0.0
 (Enter /app1/ia32-64/Gaussian/Rev-C.02/g16/l703.exe)
 Integral derivatives from FoFJK, PRISM(SPDF).
 Compute integral first derivatives, UseDBF=F ICtDFT=           0.
 Calling FoFJK, ICntrl=      2127 FMM=F ISym2X=0 I1Cent= 0 IOpClX= 0 NMat=1 NMatS=1 NMatT=0.
 FoFJK:  IHMeth= 1 ICntrl=    2127 DoSepK=F KAlg= 0 I1Cent=           0 FoldK=F
 IRaf=         0 NMat=       1 IRICut=       1 DoRegI=T DoRafI=F ISym2E= 0 IDoP0=0 IntGTp=1.
 FoFCou: FMM=F IPFlag=           0 FMFlag=      100000 FMFlg1=         800
         NFxFlg=           0 DoJE=F BraDBF=F KetDBF=F FulRan=T
         wScrn=  0.000000 ICntrl=      2127 IOpCl=  0 I1Cent=           0 NGrid=           0
         NMat0=    1 NMatS0=      1 NMatT0=    0 NMatD0=    1 NMtDS0=    0 NMtDT0=    0
 Symmetry not used in FoFCou.
 Leave Link  703 at Sun Sep 13 22:08:02 2026, MaxMem=   805306368 cpu:               5.1 elap:               5.1
 (Enter /app1/ia32-64/Gaussian/Rev-C.02/g16/l716.exe)
 Dipole        =-2.57880462D-01 2.54228220D-01 5.38145442D-01
 ***** Axes restored to original set *****
 -------------------------------------------------------------------
 Center     Atomic                   Forces (Hartrees/Bohr)
 Number     Number              X              Y              Z
 -------------------------------------------------------------------
      1        6           0.001706738   -0.000727580   -0.004105546
      2        9           0.000259925    0.000828936    0.002899745
      3        8          -0.001278456   -0.000372131    0.002353866
      4        1           0.000125787    0.000359273   -0.000239039
      5        1          -0.000337919   -0.000367796    0.000148232
      6        1          -0.000476075    0.000279297   -0.001057259
 -------------------------------------------------------------------
 Cartesian Forces:  Max     0.004105546 RMS     0.001465731
 Leave Link  716 at Sun Sep 13 22:08:02 2026, MaxMem=   805306368 cpu:               0.0 elap:               0.1
 (Enter /app1/ia32-64/Gaussian/Rev-C.02/g16/l103.exe)

 GradGradGradGradGradGradGradGradGradGradGradGradGradGradGradGradGradGrad
 Berny optimization.
 Using GEDIIS/GDIIS optimizer.
 FormGI is forming the generalized inverse of G from B-inverse, IUseBI=4.
 Internal  Forces:  Max     0.002886856 RMS     0.001050990
 Search for a local minimum.
 Step number   3 out of a maximum of   25
 All quantities printed in internal units (Hartrees-Bohrs-Radians)
 RMS Force = .10510D-02 SwitMx=.10000D-02 MixMth= 1
 Mixed Optimization -- RFO/linear search
 Update second derivatives using D2CorX and points    1    2    3
 DE= -2.56D-04 DEPred=-2.08D-04 R= 1.23D+00
 TightC=F SS=  1.41D+00  RLast= 8.25D-02 DXNew= 7.6700D-01 2.4735D-01
 Trust test= 1.23D+00 RLast= 8.25D-02 DXMaxT set to 4.56D-01
 The second derivative matrix:
                          R1        R2        R3        R4        R5
           R1           0.46487
           R2           0.05011   0.39704
           R3          -0.00176   0.00061   0.34855
           R4          -0.00166  -0.00311   0.00006   0.34936
           R5          -0.01279  -0.00023   0.00075   0.00362   0.56527
           A1           0.00400   0.00030   0.00135  -0.00260  -0.00458
           A2           0.02292  -0.02200  -0.00298   0.00029  -0.00149
           A3          -0.00204  -0.00863  -0.00009   0.00280   0.00805
           A4           0.00181   0.00853  -0.00069  -0.00200  -0.00723
           A5          -0.00405   0.00329  -0.00191   0.00227   0.00242
           A6          -0.01969   0.02029  -0.00065   0.00229   0.00252
           A7          -0.02459   0.01323  -0.00020   0.00519   0.01149
           D1          -0.00686   0.02633   0.00128  -0.00513  -0.01414
           D2          -0.00588  -0.00983  -0.00035   0.00460   0.01238
           D3          -0.00484   0.01216  -0.00146   0.00003  -0.00365
                          A1        A2        A3        A4        A5
           A1           0.25742
           A2          -0.01808   0.16492
           A3          -0.00623   0.00336   0.16628
           A4          -0.00054  -0.00330  -0.00321   0.15850
           A5          -0.01093   0.01573   0.00664  -0.00293   0.17113
           A6          -0.00569   0.00783   0.00658  -0.00736   0.00207
           A7          -0.00893   0.01060   0.01246  -0.00959   0.00662
           D1           0.02265   0.00361  -0.01372   0.01387  -0.01657
           D2          -0.01378  -0.00059   0.01149  -0.01090   0.00964
           D3          -0.00532   0.00859   0.00169  -0.00236   0.00348
                          A6        A7        D1        D2        D3
           A6           0.15303
           A7          -0.00046   0.17150
           D1          -0.01191  -0.02731   0.02843
           D2           0.00621   0.01878  -0.01501   0.03153
           D3          -0.00513  -0.00424  -0.00228  -0.00115   0.01658
 ITU=  1  1  0
 Use linear search instead of GDIIS.
     Eigenvalues ---    0.01114   0.10294   0.12267   0.15664   0.16320
     Eigenvalues ---    0.18182   0.26351   0.34854   0.34977   0.37673
     Eigenvalues ---    0.49123   0.56926
 RFO step:  Lambda=-1.18085332D-04 EMin= 1.11427467D-02
 Quartic linear search produced a step of  0.31176.
 Iteration  1 RMS(Cart)=  0.01677208 RMS(Int)=  0.00049355
 Iteration  2 RMS(Cart)=  0.00042817 RMS(Int)=  0.00001789
 Iteration  3 RMS(Cart)=  0.00000028 RMS(Int)=  0.00001789
 ITry= 1 IFail=0 DXMaxC= 4.06D-02 DCOld= 1.00D+10 DXMaxT= 4.56D-01 DXLimC= 3.00D+00 Rises=F
 Variable       Old X    -DE/DX   Delta X   Delta X   Delta X     New X
                                 (Linear)    (Quad)   (Total)
    R1        2.61811   0.00289   0.00199   0.00793   0.00992   2.62803
    R2        2.61318  -0.00207  -0.00404  -0.00688  -0.01092   2.60226
    R3        2.06791  -0.00028  -0.00001  -0.00062  -0.00064   2.06727
    R4        2.05781  -0.00021   0.00034  -0.00100  -0.00067   2.05714
    R5        1.82213  -0.00076   0.00091  -0.00160  -0.00069   1.82143
    A1        1.94240  -0.00087  -0.00258  -0.00096  -0.00357   1.93883
    A2        1.85176   0.00089  -0.00422   0.00580   0.00153   1.85330
    A3        1.88807  -0.00038   0.00182  -0.00764  -0.00582   1.88225
    A4        1.96840   0.00009  -0.00215   0.00451   0.00233   1.97073
    A5        1.86513   0.00056   0.00299  -0.00054   0.00244   1.86758
    A6        1.94771  -0.00035   0.00438  -0.00178   0.00258   1.95029
    A7        1.90202   0.00024   0.00691   0.00121   0.00812   1.91013
    D1        1.13402   0.00092   0.00899   0.04842   0.05743   1.19145
    D2       -0.94479   0.00033   0.01779   0.03860   0.05638  -0.88842
    D3       -3.09132   0.00032   0.01158   0.03836   0.04992  -3.04140
         Item               Value     Threshold  Converged?
 Maximum Force            0.002887     0.000015     NO 
 RMS     Force            0.001051     0.000010     NO 
 Maximum Displacement     0.040609     0.000060     NO 
 RMS     Displacement     0.016797     0.000040     NO 
 Predicted change in Energy=-7.505856D-05
 Lowest energy point so far.  Saving SCF results.
 GradGradGradGradGradGradGradGradGradGradGradGradGradGradGradGradGradGrad

 Leave Link  103 at Sun Sep 13 22:08:02 2026, MaxMem=   805306368 cpu:               0.0 elap:               0.1
 (Enter /app1/ia32-64/Gaussian/Rev-C.02/g16/l202.exe)
                          Input orientation:                          
 ---------------------------------------------------------------------
 Center     Atomic      Atomic             Coordinates (Angstroms)
 Number     Number       Type             X           Y           Z
 ---------------------------------------------------------------------
      1          6           0        0.015264   -0.009582    0.001553
      2          9           0       -0.077134    0.011836    1.389006
      3          8           0        1.329463    0.027282   -0.408090
      4          1           0       -0.507478   -0.913385   -0.324969
      5          1           0       -0.462073    0.891929   -0.378525
      6          1           0        1.763858   -0.798773   -0.167334
 ---------------------------------------------------------------------
                    Distance matrix (angstroms):
                    1          2          3          4          5
     1  C    0.000000
     2  F    1.390692   0.000000
     3  O    1.377057   2.282172   0.000000
     4  H    1.093954   1.994728   2.065457   0.000000
     5  H    1.088593   2.011694   1.989495   1.806680   0.000000
     6  H    1.925857   2.543331   0.963861   2.279683   2.803185
                    6
     6  H    0.000000
 Stoichiometry    CH3FO
 Framework group  C1[X(CH3FO)]
 Deg. of freedom    12
 Full point group                 C1      NOp   1
 RotChk:  IX=0 Diff= 1.65D-02
 Largest Abelian subgroup         C1      NOp   1
 Largest concise Abelian subgroup C1      NOp   1
                         Standard orientation:                         
 ---------------------------------------------------------------------
 Center     Atomic      Atomic             Coordinates (Angstroms)
 Number     Number       Type             X           Y           Z
 ---------------------------------------------------------------------
      1          6           0        0.014301    0.511149    0.048530
      2          9           0        1.134055   -0.310106   -0.027067
      3          8           0       -1.144339   -0.214429   -0.116915
      4          1           0        0.068331    1.011815    1.019689
      5          1           0        0.065388    1.221490   -0.774780
      6          1           0       -1.271312   -0.793813    0.642836
 ---------------------------------------------------------------------
 Rotational constants (GHZ):          45.7157777          10.2604239           9.0623768
 Leave Link  202 at Sun Sep 13 22:08:03 2026, MaxMem=   805306368 cpu:               0.0 elap:               0.0
 (Enter /app1/ia32-64/Gaussian/Rev-C.02/g16/l301.exe)
 Standard basis: CC-pVTZ (5D, 7F)
 Ernie: Thresh=  0.10000D-02 Tol=  0.10000D-05 Strict=F.
 Ernie:  9 primitive shells out of 102 were deleted.
 There are   150 symmetry adapted cartesian basis functions of A   symmetry.
 There are   132 symmetry adapted basis functions of A   symmetry.
   132 basis functions,   207 primitive gaussians,   150 cartesian basis functions
    13 alpha electrons       13 beta electrons
       nuclear repulsion energy        79.0669808904 Hartrees.
 IExCor=  402 DFT=T Ex+Corr=B3LYP ExCW=0 ScaHFX=  0.200000
 ScaDFX=  0.800000  0.720000  1.000000  0.810000 ScalE2=  1.000000  1.000000
 IRadAn=      5 IRanWt=     -1 IRanGd=            0 ICorTp=0 IEmpDi=  4
 NAtoms=    6 NActive=    6 NUniq=    6 SFac= 1.00D+00 NAtFMM=   60 NAOKFM=F Big=F
 Integral buffers will be    131072 words long.
 Raffenetti 2 integral format.
 Two-electron integral symmetry is turned on.
 Leave Link  301 at Sun Sep 13 22:08:03 2026, MaxMem=   805306368 cpu:               0.0 elap:               0.1
 (Enter /app1/ia32-64/Gaussian/Rev-C.02/g16/l302.exe)
 NPDir=0 NMtPBC=     1 NCelOv=     1 NCel=       1 NClECP=     1 NCelD=      1
         NCelK=      1 NCelE2=     1 NClLst=     1 CellRange=     0.0.
 One-electron integrals computed using PRISM.
 One-electron integral symmetry used in STVInt
 NBasis=   132 RedAO= T EigKep=  1.90D-03  NBF=   132
 NBsUse=   132 1.00D-06 EigRej= -1.00D+00 NBFU=   132
 Precomputing XC quadrature grid using
 IXCGrd= 4 IRadAn=           5 IRanWt=          -1 IRanGd=           0 AccXCQ= 0.00D+00.
 Generated NRdTot=       0 NPtTot=           0 NUsed=           0 NTot=          32
 NSgBfM=   150   150   150   150   150 MxSgAt=     6 MxSgA2=     6.
 Leave Link  302 at Sun Sep 13 22:08:03 2026, MaxMem=   805306368 cpu:               0.1 elap:               0.1
 (Enter /app1/ia32-64/Gaussian/Rev-C.02/g16/l303.exe)
 DipDrv:  MaxL=1.
 Leave Link  303 at Sun Sep 13 22:08:03 2026, MaxMem=   805306368 cpu:               0.0 elap:               0.0
 (Enter /app1/ia32-64/Gaussian/Rev-C.02/g16/l401.exe)
 Initial guess from the checkpoint file:  "ch2foh.chk"
 B after Tr=     0.000000    0.000000    0.000000
         Rot=    0.999991    0.003875    0.001274   -0.000749 Ang=   0.48 deg.
 Guess basis will be translated and rotated to current coordinates.
 JPrj=2 DoOrth=T DoCkMO=T.
 Generating alternative initial guess.
 ExpMin= 1.03D-01 ExpMax= 1.95D+04 ExpMxC= 6.65D+02 IAcc=3 IRadAn=         5 AccDes= 0.00D+00
 Harris functional with IExCor=  402 and IRadAn=       5 diagonalized for initial guess.
 HarFok:  IExCor=  402 AccDes= 0.00D+00 IRadAn=         5 IDoV= 1 UseB2=F ITyADJ=14
 ICtDFT=  3500011 ScaDFX=  1.000000  1.000000  1.000000  1.000000
 FoFCou: FMM=F IPFlag=           0 FMFlag=      100000 FMFlg1=           0
         NFxFlg=           0 DoJE=T BraDBF=F KetDBF=T FulRan=T
         wScrn=  0.000000 ICntrl=       500 IOpCl=  0 I1Cent=   200000004 NGrid=           0
         NMat0=    1 NMatS0=      1 NMatT0=    0 NMatD0=    1 NMtDS0=    0 NMtDT0=    0
 Petite list used in FoFCou.
 Harris En= -215.060144708519    
 Leave Link  401 at Sun Sep 13 22:08:04 2026, MaxMem=   805306368 cpu:               0.8 elap:               0.8
 (Enter /app1/ia32-64/Gaussian/Rev-C.02/g16/l502.exe)
 Keep R1 ints in memory in canonical form, NReq=40547587.
 FoFCou: FMM=F IPFlag=           0 FMFlag=           0 FMFlg1=           0
         NFxFlg=           0 DoJE=F BraDBF=F KetDBF=F FulRan=T
         wScrn=  0.000000 ICntrl=       600 IOpCl=  0 I1Cent=           0 NGrid=           0
         NMat0=    1 NMatS0=   8778 NMatT0=    0 NMatD0=    1 NMtDS0=    0 NMtDT0=    0
 Symmetry not used in FoFCou.
 Two-electron integral symmetry not used.
 Closed shell SCF:
 Using DIIS extrapolation, IDIIS=  1040.
 NGot=   805306368 LenX=   766727867 LenY=   766704926
 Requested convergence on RMS density matrix=1.00D-08 within 128 cycles.
 Requested convergence on MAX density matrix=1.00D-06.
 Requested convergence on             energy=1.00D-06.
 No special actions if energy rises.
 Integral accuracy reduced to 1.0D-05 until final iterations.

 Cycle   1  Pass 0  IDiag  1:
 E= -215.057417278106    
 DIIS: error= 1.55D-03 at cycle   1 NSaved=   1.
 NSaved= 1 IEnMin= 1 EnMin= -215.057417278106     IErMin= 1 ErrMin= 1.55D-03
 ErrMax= 1.55D-03  0.00D+00 EMaxC= 1.00D-01 BMatC= 3.20D-04 BMatP= 3.20D-04
 IDIUse=3 WtCom= 9.85D-01 WtEn= 1.55D-02
 Coeff-Com:  0.100D+01
 Coeff-En:   0.100D+01
 Coeff:      0.100D+01
 Gap=     0.956 Goal=   None    Shift=    0.000
 GapD=    0.956 DampG=2.000 DampE=1.000 DampFc=2.0000 IDamp=-1.
 RMSDP=1.50D-04 MaxDP=2.97D-03              OVMax= 7.92D-03

 Cycle   2  Pass 0  IDiag  1:
 E= -215.057751724072     Delta-E=       -0.000334445966 Rises=F Damp=F
 DIIS: error= 2.13D-04 at cycle   2 NSaved=   2.
 NSaved= 2 IEnMin= 2 EnMin= -215.057751724072     IErMin= 2 ErrMin= 2.13D-04
 ErrMax= 2.13D-04  0.00D+00 EMaxC= 1.00D-01 BMatC= 1.28D-05 BMatP= 3.20D-04
 IDIUse=3 WtCom= 9.98D-01 WtEn= 2.13D-03
 Coeff-Com:  0.122D-01 0.988D+00
 Coeff-En:   0.000D+00 0.100D+01
 Coeff:      0.122D-01 0.988D+00
 Gap=     0.347 Goal=   None    Shift=    0.000
 RMSDP=2.47D-05 MaxDP=5.05D-04 DE=-3.34D-04 OVMax= 1.17D-03

 Cycle   3  Pass 0  IDiag  1:
 E= -215.057749346712     Delta-E=        0.000002377360 Rises=F Damp=F
 DIIS: error= 2.62D-04 at cycle   3 NSaved=   3.
 NSaved= 3 IEnMin= 2 EnMin= -215.057751724072     IErMin= 2 ErrMin= 2.13D-04
 ErrMax= 2.62D-04  0.00D+00 EMaxC= 1.00D-01 BMatC= 1.89D-05 BMatP= 1.28D-05
 IDIUse=3 WtCom= 3.82D-01 WtEn= 6.18D-01
 Coeff-Com: -0.261D-01 0.567D+00 0.459D+00
 Coeff-En:   0.000D+00 0.569D+00 0.431D+00
 Coeff:     -0.997D-02 0.569D+00 0.441D+00
 Gap=     0.347 Goal=   None    Shift=    0.000
 RMSDP=1.67D-05 MaxDP=3.22D-04 DE= 2.38D-06 OVMax= 7.46D-04

 Cycle   4  Pass 0  IDiag  1:
 E= -215.057759470093     Delta-E=       -0.000010123381 Rises=F Damp=F
 DIIS: error= 4.44D-05 at cycle   4 NSaved=   4.
 NSaved= 4 IEnMin= 4 EnMin= -215.057759470093     IErMin= 4 ErrMin= 4.44D-05
 ErrMax= 4.44D-05  0.00D+00 EMaxC= 1.00D-01 BMatC= 4.88D-07 BMatP= 1.28D-05
 IDIUse=1 WtCom= 1.00D+00 WtEn= 0.00D+00
 Coeff-Com: -0.783D-02 0.124D+00 0.184D+00 0.701D+00
 Coeff:     -0.783D-02 0.124D+00 0.184D+00 0.701D+00
 Gap=     0.347 Goal=   None    Shift=    0.000
 RMSDP=3.48D-06 MaxDP=5.76D-05 DE=-1.01D-05 OVMax= 1.64D-04

 Initial convergence to 1.0D-05 achieved.  Increase integral accuracy.
 Cycle   5  Pass 1  IDiag  1:
 E= -215.057759072400     Delta-E=        0.000000397693 Rises=F Damp=F
 DIIS: error= 9.74D-06 at cycle   1 NSaved=   1.
 NSaved= 1 IEnMin= 1 EnMin= -215.057759072400     IErMin= 1 ErrMin= 9.74D-06
 ErrMax= 9.74D-06  0.00D+00 EMaxC= 1.00D-01 BMatC= 1.82D-08 BMatP= 1.82D-08
 IDIUse=1 WtCom= 1.00D+00 WtEn= 0.00D+00
 Coeff-Com:  0.100D+01
 Coeff:      0.100D+01
 Gap=     0.347 Goal=   None    Shift=    0.000
 RMSDP=3.48D-06 MaxDP=5.76D-05 DE= 3.98D-07 OVMax= 5.40D-05

 Cycle   6  Pass 1  IDiag  1:
 E= -215.057759061026     Delta-E=        0.000000011374 Rises=F Damp=F
 DIIS: error= 1.41D-05 at cycle   2 NSaved=   2.
 NSaved= 2 IEnMin= 1 EnMin= -215.057759072400     IErMin= 1 ErrMin= 9.74D-06
 ErrMax= 1.41D-05  0.00D+00 EMaxC= 1.00D-01 BMatC= 3.63D-08 BMatP= 1.82D-08
 IDIUse=1 WtCom= 1.00D+00 WtEn= 0.00D+00
 Coeff-Com:  0.589D+00 0.411D+00
 Coeff:      0.589D+00 0.411D+00
 Gap=     0.347 Goal=   None    Shift=    0.000
 RMSDP=6.88D-07 MaxDP=1.45D-05 DE= 1.14D-08 OVMax= 3.80D-05

 Cycle   7  Pass 1  IDiag  1:
 E= -215.057759084108     Delta-E=       -0.000000023082 Rises=F Damp=F
 DIIS: error= 1.15D-06 at cycle   3 NSaved=   3.
 NSaved= 3 IEnMin= 3 EnMin= -215.057759084108     IErMin= 3 ErrMin= 1.15D-06
 ErrMax= 1.15D-06  0.00D+00 EMaxC= 1.00D-01 BMatC= 3.92D-10 BMatP= 1.82D-08
 IDIUse=1 WtCom= 1.00D+00 WtEn= 0.00D+00
 Coeff-Com:  0.151D+00 0.150D+00 0.699D+00
 Coeff:      0.151D+00 0.150D+00 0.699D+00
 Gap=     0.347 Goal=   None    Shift=    0.000
 RMSDP=9.77D-08 MaxDP=1.83D-06 DE=-2.31D-08 OVMax= 4.89D-06

 Cycle   8  Pass 1  IDiag  1:
 E= -215.057759084344     Delta-E=       -0.000000000236 Rises=F Damp=F
 DIIS: error= 4.68D-07 at cycle   4 NSaved=   4.
 NSaved= 4 IEnMin= 4 EnMin= -215.057759084344     IErMin= 4 ErrMin= 4.68D-07
 ErrMax= 4.68D-07  0.00D+00 EMaxC= 1.00D-01 BMatC= 4.54D-11 BMatP= 3.92D-10
 IDIUse=1 WtCom= 1.00D+00 WtEn= 0.00D+00
 Coeff-Com:  0.310D-01 0.443D-01 0.330D+00 0.595D+00
 Coeff:      0.310D-01 0.443D-01 0.330D+00 0.595D+00
 Gap=     0.347 Goal=   None    Shift=    0.000
 RMSDP=3.08D-08 MaxDP=5.89D-07 DE=-2.36D-10 OVMax= 1.55D-06

 Cycle   9  Pass 1  IDiag  1:
 E= -215.057759084366     Delta-E=       -0.000000000021 Rises=F Damp=F
 DIIS: error= 1.88D-07 at cycle   5 NSaved=   5.
 NSaved= 5 IEnMin= 5 EnMin= -215.057759084366     IErMin= 5 ErrMin= 1.88D-07
 ErrMax= 1.88D-07  0.00D+00 EMaxC= 1.00D-01 BMatC= 8.24D-12 BMatP= 4.54D-11
 IDIUse=1 WtCom= 1.00D+00 WtEn= 0.00D+00
 Coeff-Com: -0.128D-01-0.407D-02 0.575D-01 0.340D+00 0.620D+00
 Coeff:     -0.128D-01-0.407D-02 0.575D-01 0.340D+00 0.620D+00
 Gap=     0.347 Goal=   None    Shift=    0.000
 RMSDP=1.17D-08 MaxDP=2.21D-07 DE=-2.15D-11 OVMax= 5.39D-07

 Cycle  10  Pass 1  IDiag  1:
 E= -215.057759084371     Delta-E=       -0.000000000005 Rises=F Damp=F
 DIIS: error= 7.90D-09 at cycle   6 NSaved=   6.
 NSaved= 6 IEnMin= 6 EnMin= -215.057759084371     IErMin= 6 ErrMin= 7.90D-09
 ErrMax= 7.90D-09  0.00D+00 EMaxC= 1.00D-01 BMatC= 1.51D-14 BMatP= 8.24D-12
 IDIUse=1 WtCom= 1.00D+00 WtEn= 0.00D+00
 Coeff-Com: -0.206D-02-0.119D-02 0.109D-02 0.218D-01 0.591D-01 0.921D+00
 Coeff:     -0.206D-02-0.119D-02 0.109D-02 0.218D-01 0.591D-01 0.921D+00
 Gap=     0.347 Goal=   None    Shift=    0.000
 RMSDP=1.26D-09 MaxDP=2.67D-08 DE=-5.34D-12 OVMax= 7.68D-08

 SCF Done:  E(RB3LYP) =  -215.057759084     A.U. after   10 cycles
            NFock= 10  Conv=0.13D-08     -V/T= 2.0055
 KE= 2.138860199439D+02 PE=-6.670113946845D+02 EE= 1.590006347658D+02
 Leave Link  502 at Sun Sep 13 22:08:17 2026, MaxMem=   805306368 cpu:               7.5 elap:              11.9
 (Enter /app1/ia32-64/Gaussian/Rev-C.02/g16/l701.exe)
 ... and contract with generalized density number  0.
 Compute integral first derivatives.
 Leave Link  701 at Sun Sep 13 22:08:17 2026, MaxMem=   805306368 cpu:               0.1 elap:               0.2
 (Enter /app1/ia32-64/Gaussian/Rev-C.02/g16/l702.exe)
 L702 exits ... SP integral derivatives will be done elsewhere.
 Leave Link  702 at Sun Sep 13 22:08:17 2026, MaxMem=   805306368 cpu:               0.0 elap:               0.1
 (Enter /app1/ia32-64/Gaussian/Rev-C.02/g16/l703.exe)
 Integral derivatives from FoFJK, PRISM(SPDF).
 Compute integral first derivatives, UseDBF=F ICtDFT=           0.
 Calling FoFJK, ICntrl=      2127 FMM=F ISym2X=0 I1Cent= 0 IOpClX= 0 NMat=1 NMatS=1 NMatT=0.
 FoFJK:  IHMeth= 1 ICntrl=    2127 DoSepK=F KAlg= 0 I1Cent=           0 FoldK=F
 IRaf=         0 NMat=       1 IRICut=       1 DoRegI=T DoRafI=F ISym2E= 0 IDoP0=0 IntGTp=1.
 FoFCou: FMM=F IPFlag=           0 FMFlag=      100000 FMFlg1=         800
         NFxFlg=           0 DoJE=F BraDBF=F KetDBF=F FulRan=T
         wScrn=  0.000000 ICntrl=      2127 IOpCl=  0 I1Cent=           0 NGrid=           0
         NMat0=    1 NMatS0=      1 NMatT0=    0 NMatD0=    1 NMtDS0=    0 NMtDT0=    0
 Symmetry not used in FoFCou.
 Leave Link  703 at Sun Sep 13 22:08:22 2026, MaxMem=   805306368 cpu:               5.1 elap:               5.1
 (Enter /app1/ia32-64/Gaussian/Rev-C.02/g16/l716.exe)
 Dipole        =-2.99025906D-01 2.78218028D-01 5.53962850D-01
 ***** Axes restored to original set *****
 -------------------------------------------------------------------
 Center     Atomic                   Forces (Hartrees/Bohr)
 Number     Number              X              Y              Z
 -------------------------------------------------------------------
      1        6           0.000012446   -0.000263699   -0.000408885
      2        9          -0.000269377    0.000198952    0.000691301
      3        8           0.001636027   -0.000269352    0.000156177
      4        1          -0.000150558    0.000367406    0.000025925
      5        1          -0.000588437   -0.000354664   -0.000010020
      6        1          -0.000640101    0.000321357   -0.000454498
 -------------------------------------------------------------------
 Cartesian Forces:  Max     0.001636027 RMS     0.000524430
 Leave Link  716 at Sun Sep 13 22:08:23 2026, MaxMem=   805306368 cpu:               0.0 elap:               0.0
 (Enter /app1/ia32-64/Gaussian/Rev-C.02/g16/l103.exe)

 GradGradGradGradGradGradGradGradGradGradGradGradGradGradGradGradGradGrad
 Berny optimization.
 Using GEDIIS/GDIIS optimizer.
 FormGI is forming the generalized inverse of G from B-inverse, IUseBI=4.
 Internal  Forces:  Max     0.001040501 RMS     0.000501183
 Search for a local minimum.
 Step number   4 out of a maximum of   25
 All quantities printed in internal units (Hartrees-Bohrs-Radians)
 RMS Force = .50118D-03 SwitMx=.10000D-02 MixMth= 2
 Mixed Optimization -- En-DIIS/RFO-DIIS
 Update second derivatives using D2CorX and points    1    2    3    4
 DE= -9.16D-05 DEPred=-7.51D-05 R= 1.22D+00
 TightC=F SS=  1.41D+00  RLast= 9.65D-02 DXNew= 7.6700D-01 2.8963D-01
 Trust test= 1.22D+00 RLast= 9.65D-02 DXMaxT set to 4.56D-01
 The second derivative matrix:
                          R1        R2        R3        R4        R5
           R1           0.45038
           R2           0.03711   0.46935
           R3           0.00221  -0.00505   0.34848
           R4          -0.00104  -0.00308  -0.00005   0.34934
           R5          -0.00192  -0.02054   0.00109   0.00334   0.56786
           A1          -0.00302   0.02420   0.00003  -0.00251  -0.01007
           A2           0.01383  -0.01715  -0.00184   0.00055   0.00068
           A3           0.01122  -0.02701  -0.00044   0.00244   0.00891
           A4          -0.00321   0.01617  -0.00061  -0.00187  -0.00778
           A5          -0.00887   0.01168  -0.00205   0.00241   0.00144
           A6          -0.00407  -0.01006  -0.00011   0.00193   0.00667
           A7          -0.01827  -0.01448   0.00174   0.00511   0.01868
           D1           0.00270   0.01025   0.00125  -0.00532  -0.01248
           D2          -0.02038  -0.00268   0.00154   0.00501   0.01605
           D3          -0.01346   0.02446  -0.00132   0.00027  -0.00436
                          A1        A2        A3        A4        A5
           A1           0.26590
           A2          -0.01730   0.16051
           A3          -0.01128   0.00684   0.16538
           A4           0.00192  -0.00437  -0.00329   0.15879
           A5          -0.00940   0.01448   0.00685  -0.00312   0.17193
           A6          -0.01453   0.01096   0.00849  -0.00858   0.00080
           A7          -0.01795   0.00921   0.01877  -0.01227   0.00373
           D1           0.01741   0.00627  -0.01313   0.01315  -0.01655
           D2          -0.01233  -0.00704   0.01693  -0.01242   0.00715
           D3          -0.00237   0.00633   0.00238  -0.00248   0.00368
                          A6        A7        D1        D2        D3
           A6           0.15965
           A7           0.01048   0.18197
           D1          -0.00918  -0.02141   0.02928
           D2           0.01113   0.01678  -0.01140   0.02204
           D3          -0.00643  -0.00844  -0.00247  -0.00498   0.01623
 ITU=  1  1  1  0
 Use linear search instead of GDIIS.
     Eigenvalues ---    0.00740   0.10662   0.12410   0.15481   0.16720
     Eigenvalues ---    0.18758   0.26868   0.34822   0.34983   0.42956
     Eigenvalues ---    0.49808   0.57788
 RFO step:  Lambda=-2.56064381D-05 EMin= 7.39810733D-03
 Quartic linear search produced a step of  0.29120.
 Iteration  1 RMS(Cart)=  0.01055116 RMS(Int)=  0.00017198
 Iteration  2 RMS(Cart)=  0.00014849 RMS(Int)=  0.00000417
 Iteration  3 RMS(Cart)=  0.00000003 RMS(Int)=  0.00000417
 ITry= 1 IFail=0 DXMaxC= 2.48D-02 DCOld= 1.00D+10 DXMaxT= 4.56D-01 DXLimC= 3.00D+00 Rises=F
 Variable       Old X    -DE/DX   Delta X   Delta X   Delta X     New X
                                 (Linear)    (Quad)   (Total)
    R1        2.62803   0.00071   0.00289   0.00137   0.00426   2.63229
    R2        2.60226   0.00104  -0.00318   0.00223  -0.00095   2.60131
    R3        2.06727  -0.00024  -0.00019  -0.00066  -0.00085   2.06642
    R4        2.05714  -0.00003  -0.00019   0.00009  -0.00010   2.05704
    R5        1.82143  -0.00068  -0.00020  -0.00093  -0.00113   1.82030
    A1        1.93883   0.00034  -0.00104   0.00221   0.00117   1.94000
    A2        1.85330  -0.00011   0.00045  -0.00305  -0.00261   1.85069
    A3        1.88225  -0.00037  -0.00170  -0.00111  -0.00281   1.87945
    A4        1.97073   0.00012   0.00068   0.00033   0.00100   1.97174
    A5        1.86758   0.00068   0.00071   0.00535   0.00606   1.87363
    A6        1.95029  -0.00069   0.00075  -0.00390  -0.00316   1.94714
    A7        1.91013  -0.00047   0.00236  -0.00162   0.00074   1.91088
    D1        1.19145   0.00026   0.01672   0.01529   0.03201   1.22345
    D2       -0.88842   0.00009   0.01642   0.01742   0.03385  -0.85457
    D3       -3.04140   0.00040   0.01454   0.01834   0.03288  -3.00852
         Item               Value     Threshold  Converged?
 Maximum Force            0.001041     0.000015     NO 
 RMS     Force            0.000501     0.000010     NO 
 Maximum Displacement     0.024814     0.000060     NO 
 RMS     Displacement     0.010543     0.000040     NO 
 Predicted change in Energy=-1.795125D-05
 Lowest energy point so far.  Saving SCF results.
 GradGradGradGradGradGradGradGradGradGradGradGradGradGradGradGradGradGrad

 Leave Link  103 at Sun Sep 13 22:08:23 2026, MaxMem=   805306368 cpu:               0.0 elap:               0.1
 (Enter /app1/ia32-64/Gaussian/Rev-C.02/g16/l202.exe)
                          Input orientation:                          
 ---------------------------------------------------------------------
 Center     Atomic      Atomic             Coordinates (Angstroms)
 Number     Number       Type             X           Y           Z
 ---------------------------------------------------------------------
      1          6           0        0.017820   -0.008073    0.002660
      2          9           0       -0.084357    0.016303    1.391641
      3          8           0        1.333798    0.030263   -0.399382
      4          1           0       -0.501595   -0.913702   -0.322603
      5          1           0       -0.464872    0.889334   -0.380210
      6          1           0        1.761105   -0.804818   -0.180465
 ---------------------------------------------------------------------
                    Distance matrix (angstroms):
                    1          2          3          4          5
     1  C    0.000000
     2  F    1.392947   0.000000
     3  O    1.376556   2.284540   0.000000
     4  H    1.093504   1.994400   2.065341   0.000000
     5  H    1.088540   2.011574   1.993385   1.804330   0.000000
     6  H    1.925456   2.559587   0.963263   2.269773   2.804464
                    6
     6  H    0.000000
 Stoichiometry    CH3FO
 Framework group  C1[X(CH3FO)]
 Deg. of freedom    12
 Full point group                 C1      NOp   1
 RotChk:  IX=0 Diff= 8.69D-03
 Largest Abelian subgroup         C1      NOp   1
 Largest concise Abelian subgroup C1      NOp   1
                         Standard orientation:                         
 ---------------------------------------------------------------------
 Center     Atomic      Atomic             Coordinates (Angstroms)
 Number     Number       Type             X           Y           Z
 ---------------------------------------------------------------------
      1          6           0        0.012930    0.510254    0.047398
      2          9           0        1.136415   -0.309944   -0.025811
      3          8           0       -1.144317   -0.216431   -0.118781
      4          1           0        0.066964    1.010650    1.018189
      5          1           0        0.069593    1.222728   -0.773632
      6          1           0       -1.287336   -0.773956    0.653609
 ---------------------------------------------------------------------
 Rotational constants (GHZ):          45.7899643          10.2285859           9.0444416
 Leave Link  202 at Sun Sep 13 22:08:23 2026, MaxMem=   805306368 cpu:               0.0 elap:               0.0
 (Enter /app1/ia32-64/Gaussian/Rev-C.02/g16/l301.exe)
 Standard basis: CC-pVTZ (5D, 7F)
 Ernie: Thresh=  0.10000D-02 Tol=  0.10000D-05 Strict=F.
 Ernie:  9 primitive shells out of 102 were deleted.
 There are   150 symmetry adapted cartesian basis functions of A   symmetry.
 There are   132 symmetry adapted basis functions of A   symmetry.
   132 basis functions,   207 primitive gaussians,   150 cartesian basis functions
    13 alpha electrons       13 beta electrons
       nuclear repulsion energy        79.0134275428 Hartrees.
 IExCor=  402 DFT=T Ex+Corr=B3LYP ExCW=0 ScaHFX=  0.200000
 ScaDFX=  0.800000  0.720000  1.000000  0.810000 ScalE2=  1.000000  1.000000
 IRadAn=      5 IRanWt=     -1 IRanGd=            0 ICorTp=0 IEmpDi=  4
 NAtoms=    6 NActive=    6 NUniq=    6 SFac= 1.00D+00 NAtFMM=   60 NAOKFM=F Big=F
 Integral buffers will be    131072 words long.
 Raffenetti 2 integral format.
 Two-electron integral symmetry is turned on.
 Leave Link  301 at Sun Sep 13 22:08:23 2026, MaxMem=   805306368 cpu:               0.0 elap:               0.0
 (Enter /app1/ia32-64/Gaussian/Rev-C.02/g16/l302.exe)
 NPDir=0 NMtPBC=     1 NCelOv=     1 NCel=       1 NClECP=     1 NCelD=      1
         NCelK=      1 NCelE2=     1 NClLst=     1 CellRange=     0.0.
 One-electron integrals computed using PRISM.
 One-electron integral symmetry used in STVInt
 NBasis=   132 RedAO= T EigKep=  1.90D-03  NBF=   132
 NBsUse=   132 1.00D-06 EigRej= -1.00D+00 NBFU=   132
 Precomputing XC quadrature grid using
 IXCGrd= 4 IRadAn=           5 IRanWt=          -1 IRanGd=           0 AccXCQ= 0.00D+00.
 Generated NRdTot=       0 NPtTot=           0 NUsed=           0 NTot=          32
 NSgBfM=   150   150   150   150   150 MxSgAt=     6 MxSgA2=     6.
 Leave Link  302 at Sun Sep 13 22:08:23 2026, MaxMem=   805306368 cpu:               0.1 elap:               0.1
 (Enter /app1/ia32-64/Gaussian/Rev-C.02/g16/l303.exe)
 DipDrv:  MaxL=1.
 Leave Link  303 at Sun Sep 13 22:08:24 2026, MaxMem=   805306368 cpu:               0.0 elap:               0.1
 (Enter /app1/ia32-64/Gaussian/Rev-C.02/g16/l401.exe)
 Initial guess from the checkpoint file:  "ch2foh.chk"
 B after Tr=     0.000000   -0.000000    0.000000
         Rot=    0.999999    0.001517    0.000618    0.000185 Ang=   0.19 deg.
 Guess basis will be translated and rotated to current coordinates.
 JPrj=2 DoOrth=T DoCkMO=T.
 Generating alternative initial guess.
 ExpMin= 1.03D-01 ExpMax= 1.95D+04 ExpMxC= 6.65D+02 IAcc=3 IRadAn=         5 AccDes= 0.00D+00
 Harris functional with IExCor=  402 and IRadAn=       5 diagonalized for initial guess.
 HarFok:  IExCor=  402 AccDes= 0.00D+00 IRadAn=         5 IDoV= 1 UseB2=F ITyADJ=14
 ICtDFT=  3500011 ScaDFX=  1.000000  1.000000  1.000000  1.000000
 FoFCou: FMM=F IPFlag=           0 FMFlag=      100000 FMFlg1=           0
         NFxFlg=           0 DoJE=T BraDBF=F KetDBF=T FulRan=T
         wScrn=  0.000000 ICntrl=       500 IOpCl=  0 I1Cent=   200000004 NGrid=           0
         NMat0=    1 NMatS0=      1 NMatT0=    0 NMatD0=    1 NMtDS0=    0 NMtDT0=    0
 Petite list used in FoFCou.
 Harris En= -215.060290293609    
 Leave Link  401 at Sun Sep 13 22:08:24 2026, MaxMem=   805306368 cpu:               0.8 elap:               0.8
 (Enter /app1/ia32-64/Gaussian/Rev-C.02/g16/l502.exe)
 Keep R1 ints in memory in canonical form, NReq=40547587.
 FoFCou: FMM=F IPFlag=           0 FMFlag=           0 FMFlg1=           0
         NFxFlg=           0 DoJE=F BraDBF=F KetDBF=F FulRan=T
         wScrn=  0.000000 ICntrl=       600 IOpCl=  0 I1Cent=           0 NGrid=           0
         NMat0=    1 NMatS0=   8778 NMatT0=    0 NMatD0=    1 NMtDS0=    0 NMtDT0=    0
 Symmetry not used in FoFCou.
 Two-electron integral symmetry not used.
 Closed shell SCF:
 Using DIIS extrapolation, IDIIS=  1040.
 NGot=   805306368 LenX=   766727867 LenY=   766704926
 Requested convergence on RMS density matrix=1.00D-08 within 128 cycles.
 Requested convergence on MAX density matrix=1.00D-06.
 Requested convergence on             energy=1.00D-06.
 No special actions if energy rises.
 Integral accuracy reduced to 1.0D-05 until final iterations.

 Cycle   1  Pass 0  IDiag  1:
 E= -215.057667674147    
 DIIS: error= 9.28D-04 at cycle   1 NSaved=   1.
 NSaved= 1 IEnMin= 1 EnMin= -215.057667674147     IErMin= 1 ErrMin= 9.28D-04
 ErrMax= 9.28D-04  0.00D+00 EMaxC= 1.00D-01 BMatC= 1.06D-04 BMatP= 1.06D-04
 IDIUse=3 WtCom= 9.91D-01 WtEn= 9.28D-03
 Coeff-Com:  0.100D+01
 Coeff-En:   0.100D+01
 Coeff:      0.100D+01
 Gap=     0.957 Goal=   None    Shift=    0.000
 RMSDP=8.69D-05 MaxDP=1.91D-03              OVMax= 4.68D-03

 Cycle   2  Pass 0  IDiag  1:
 E= -215.057778079744     Delta-E=       -0.000110405597 Rises=F Damp=F
 DIIS: error= 1.12D-04 at cycle   2 NSaved=   2.
 NSaved= 2 IEnMin= 2 EnMin= -215.057778079744     IErMin= 2 ErrMin= 1.12D-04
 ErrMax= 1.12D-04  0.00D+00 EMaxC= 1.00D-01 BMatC= 2.82D-06 BMatP= 1.06D-04
 IDIUse=3 WtCom= 9.99D-01 WtEn= 1.12D-03
 Coeff-Com: -0.986D-02 0.101D+01
 Coeff-En:   0.000D+00 0.100D+01
 Coeff:     -0.985D-02 0.101D+01
 Gap=     0.348 Goal=   None    Shift=    0.000
 RMSDP=1.24D-05 MaxDP=2.30D-04 DE=-1.10D-04 OVMax= 6.28D-04

 Cycle   3  Pass 0  IDiag  1:
 E= -215.057778124077     Delta-E=       -0.000000044332 Rises=F Damp=F
 DIIS: error= 1.18D-04 at cycle   3 NSaved=   3.
 NSaved= 3 IEnMin= 3 EnMin= -215.057778124077     IErMin= 2 ErrMin= 1.12D-04
 ErrMax= 1.18D-04  0.00D+00 EMaxC= 1.00D-01 BMatC= 3.55D-06 BMatP= 2.82D-06
 IDIUse=3 WtCom= 4.80D-01 WtEn= 5.20D-01
 Coeff-Com: -0.251D-01 0.550D+00 0.475D+00
 Coeff-En:   0.000D+00 0.493D+00 0.507D+00
 Coeff:     -0.120D-01 0.520D+00 0.492D+00
 Gap=     0.348 Goal=   None    Shift=    0.000
 RMSDP=8.47D-06 MaxDP=1.69D-04 DE=-4.43D-08 OVMax= 3.77D-04

 Initial convergence to 1.0D-05 achieved.  Increase integral accuracy.
 Cycle   4  Pass 1  IDiag  1:
 E= -215.057778908041     Delta-E=       -0.000000783964 Rises=F Damp=F
 DIIS: error= 3.34D-05 at cycle   1 NSaved=   1.
 NSaved= 1 IEnMin= 1 EnMin= -215.057778908041     IErMin= 1 ErrMin= 3.34D-05
 ErrMax= 3.34D-05  0.00D+00 EMaxC= 1.00D-01 BMatC= 3.13D-07 BMatP= 3.13D-07
 IDIUse=1 WtCom= 1.00D+00 WtEn= 0.00D+00
 Coeff-Com:  0.100D+01
 Coeff:      0.100D+01
 Gap=     0.348 Goal=   None    Shift=    0.000
 RMSDP=8.47D-06 MaxDP=1.69D-04 DE=-7.84D-07 OVMax= 2.39D-04

 Cycle   5  Pass 1  IDiag  1:
 E= -215.057778583268     Delta-E=        0.000000324773 Rises=F Damp=F
 DIIS: error= 5.44D-05 at cycle   2 NSaved=   2.
 NSaved= 2 IEnMin= 1 EnMin= -215.057778908041     IErMin= 1 ErrMin= 3.34D-05
 ErrMax= 5.44D-05  0.00D+00 EMaxC= 1.00D-01 BMatC= 8.88D-07 BMatP= 3.13D-07
 IDIUse=1 WtCom= 1.00D+00 WtEn= 0.00D+00
 Coeff-Com:  0.628D+00 0.372D+00
 Coeff:      0.628D+00 0.372D+00
 Gap=     0.348 Goal=   None    Shift=    0.000
 RMSDP=3.28D-06 MaxDP=5.73D-05 DE= 3.25D-07 OVMax= 1.49D-04

 Cycle   6  Pass 1  IDiag  1:
 E= -215.057779096473     Delta-E=       -0.000000513206 Rises=F Damp=F
 DIIS: error= 2.99D-06 at cycle   3 NSaved=   3.
 NSaved= 3 IEnMin= 3 EnMin= -215.057779096473     IErMin= 3 ErrMin= 2.99D-06
 ErrMax= 2.99D-06  0.00D+00 EMaxC= 1.00D-01 BMatC= 9.37D-10 BMatP= 3.13D-07
 IDIUse=1 WtCom= 1.00D+00 WtEn= 0.00D+00
 Coeff-Com:  0.210D+00 0.127D+00 0.662D+00
 Coeff:      0.210D+00 0.127D+00 0.662D+00
 Gap=     0.348 Goal=   None    Shift=    0.000
 RMSDP=1.34D-07 MaxDP=2.59D-06 DE=-5.13D-07 OVMax= 7.30D-06

 Cycle   7  Pass 1  IDiag  1:
 E= -215.057779096990     Delta-E=       -0.000000000516 Rises=F Damp=F
 DIIS: error= 6.58D-07 at cycle   4 NSaved=   4.
 NSaved= 4 IEnMin= 4 EnMin= -215.057779096990     IErMin= 4 ErrMin= 6.58D-07
 ErrMax= 6.58D-07  0.00D+00 EMaxC= 1.00D-01 BMatC= 1.09D-10 BMatP= 9.37D-10
 IDIUse=1 WtCom= 1.00D+00 WtEn= 0.00D+00
 Coeff-Com:  0.720D-01 0.434D-01 0.279D+00 0.606D+00
 Coeff:      0.720D-01 0.434D-01 0.279D+00 0.606D+00
 Gap=     0.348 Goal=   None    Shift=    0.000
 RMSDP=5.27D-08 MaxDP=1.12D-06 DE=-5.16D-10 OVMax= 2.56D-06

 Cycle   8  Pass 1  IDiag  1:
 E= -215.057779097045     Delta-E=       -0.000000000056 Rises=F Damp=F
 DIIS: error= 2.95D-07 at cycle   5 NSaved=   5.
 NSaved= 5 IEnMin= 5 EnMin= -215.057779097045     IErMin= 5 ErrMin= 2.95D-07
 ErrMax= 2.95D-07  0.00D+00 EMaxC= 1.00D-01 BMatC= 2.62D-11 BMatP= 1.09D-10
 IDIUse=1 WtCom= 1.00D+00 WtEn= 0.00D+00
 Coeff-Com: -0.132D-01-0.825D-02-0.420D-01 0.322D+00 0.741D+00
 Coeff:     -0.132D-01-0.825D-02-0.420D-01 0.322D+00 0.741D+00
 Gap=     0.348 Goal=   None    Shift=    0.000
 RMSDP=2.38D-08 MaxDP=4.17D-07 DE=-5.59D-11 OVMax= 1.45D-06

 Cycle   9  Pass 1  IDiag  1:
 E= -215.057779097062     Delta-E=       -0.000000000016 Rises=F Damp=F
 DIIS: error= 3.34D-08 at cycle   6 NSaved=   6.
 NSaved= 6 IEnMin= 6 EnMin= -215.057779097062     IErMin= 6 ErrMin= 3.34D-08
 ErrMax= 3.34D-08  0.00D+00 EMaxC= 1.00D-01 BMatC= 1.33D-13 BMatP= 2.62D-11
 IDIUse=1 WtCom= 1.00D+00 WtEn= 0.00D+00
 Coeff-Com: -0.438D-02-0.278D-02-0.167D-01 0.687D-01 0.180D+00 0.775D+00
 Coeff:     -0.438D-02-0.278D-02-0.167D-01 0.687D-01 0.180D+00 0.775D+00
 Gap=     0.348 Goal=   None    Shift=    0.000
 RMSDP=2.00D-09 MaxDP=3.41D-08 DE=-1.64D-11 OVMax= 1.10D-07

 SCF Done:  E(RB3LYP) =  -215.057779097     A.U. after    9 cycles
            NFock=  9  Conv=0.20D-08     -V/T= 2.0055
 KE= 2.138838915754D+02 PE=-6.669069350801D+02 EE= 1.589518368648D+02
 Leave Link  502 at Sun Sep 13 22:08:34 2026, MaxMem=   805306368 cpu:               7.1 elap:               9.4
 (Enter /app1/ia32-64/Gaussian/Rev-C.02/g16/l701.exe)
 ... and contract with generalized density number  0.
 Compute integral first derivatives.
 Leave Link  701 at Sun Sep 13 22:08:34 2026, MaxMem=   805306368 cpu:               0.1 elap:               0.1
 (Enter /app1/ia32-64/Gaussian/Rev-C.02/g16/l702.exe)
 L702 exits ... SP integral derivatives will be done elsewhere.
 Leave Link  702 at Sun Sep 13 22:08:34 2026, MaxMem=   805306368 cpu:               0.0 elap:               0.0
 (Enter /app1/ia32-64/Gaussian/Rev-C.02/g16/l703.exe)
 Integral derivatives from FoFJK, PRISM(SPDF).
 Compute integral first derivatives, UseDBF=F ICtDFT=           0.
 Calling FoFJK, ICntrl=      2127 FMM=F ISym2X=0 I1Cent= 0 IOpClX= 0 NMat=1 NMatS=1 NMatT=0.
 FoFJK:  IHMeth= 1 ICntrl=    2127 DoSepK=F KAlg= 0 I1Cent=           0 FoldK=F
 IRaf=         0 NMat=       1 IRICut=       1 DoRegI=T DoRafI=F ISym2E= 0 IDoP0=0 IntGTp=1.
 FoFCou: FMM=F IPFlag=           0 FMFlag=      100000 FMFlg1=         800
         NFxFlg=           0 DoJE=F BraDBF=F KetDBF=F FulRan=T
         wScrn=  0.000000 ICntrl=      2127 IOpCl=  0 I1Cent=           0 NGrid=           0
         NMat0=    1 NMatS0=      1 NMatT0=    0 NMatD0=    1 NMtDS0=    0 NMtDT0=    0
 Symmetry not used in FoFCou.
 Leave Link  703 at Sun Sep 13 22:08:39 2026, MaxMem=   805306368 cpu:               5.1 elap:               5.1
 (Enter /app1/ia32-64/Gaussian/Rev-C.02/g16/l716.exe)
 Dipole        =-3.16313999D-01 2.92907285D-01 5.62407404D-01
 ***** Axes restored to original set *****
 -------------------------------------------------------------------
 Center     Atomic                   Forces (Hartrees/Bohr)
 Number     Number              X              Y              Z
 -------------------------------------------------------------------
      1        6          -0.000704979   -0.000556453    0.000843038
      2        9           0.000097068    0.000211281   -0.000311824
      3        8           0.000970489    0.000269741   -0.000171117
      4        1          -0.000043920    0.000104091   -0.000207195
      5        1           0.000050804   -0.000085987   -0.000072120
      6        1          -0.000369462    0.000057326   -0.000080783
 -------------------------------------------------------------------
 Cartesian Forces:  Max     0.000970489 RMS     0.000403438
 Leave Link  716 at Sun Sep 13 22:08:40 2026, MaxMem=   805306368 cpu:               0.0 elap:               0.0
 (Enter /app1/ia32-64/Gaussian/Rev-C.02/g16/l103.exe)

 GradGradGradGradGradGradGradGradGradGradGradGradGradGradGradGradGradGrad
 Berny optimization.
 Using GEDIIS/GDIIS optimizer.
 FormGI is forming the generalized inverse of G from B-inverse, IUseBI=4.
 Internal  Forces:  Max     0.000657167 RMS     0.000266518
 Search for a local minimum.
 Step number   5 out of a maximum of   25
 All quantities printed in internal units (Hartrees-Bohrs-Radians)
 RMS Force = .26652D-03 SwitMx=.10000D-02 MixMth= 2
 Mixed Optimization -- En-DIIS/RFO-DIIS
 Swapping is turned off.
 Update second derivatives using D2CorX and points    1    2    3    4    5
 DE= -2.00D-05 DEPred=-1.80D-05 R= 1.11D+00
 TightC=F SS=  1.41D+00  RLast= 5.78D-02 DXNew= 7.6700D-01 1.7329D-01
 Trust test= 1.11D+00 RLast= 5.78D-02 DXMaxT set to 4.56D-01
 The second derivative matrix:
                          R1        R2        R3        R4        R5
           R1           0.47642
           R2           0.01627   0.45059
           R3          -0.00076   0.00126   0.34838
           R4           0.00090  -0.00217  -0.00050   0.34937
           R5          -0.00111  -0.00388  -0.00084   0.00239   0.55996
           A1          -0.00250   0.02043   0.00054  -0.00158  -0.00681
           A2           0.00430  -0.02361   0.00068   0.00023   0.00591
           A3           0.00285  -0.01599  -0.00024   0.00144   0.00595
           A4          -0.00381   0.01362  -0.00015  -0.00156  -0.00593
           A5           0.00442  -0.00372  -0.00304   0.00367   0.00402
           A6          -0.00624   0.00919  -0.00186   0.00061  -0.00193
           A7          -0.00279  -0.00570  -0.00221   0.00495   0.00937
           D1          -0.00837   0.01142   0.00284  -0.00573  -0.01016
           D2          -0.01416  -0.00743   0.00098   0.00594   0.01737
           D3          -0.00800   0.01623  -0.00138   0.00101  -0.00199
                          A1        A2        A3        A4        A5
           A1           0.26999
           A2          -0.02267   0.16103
           A3          -0.01341   0.01482   0.16584
           A4           0.00270  -0.00656  -0.00289   0.15871
           A5          -0.00983   0.00837   0.00285  -0.00374   0.17777
           A6          -0.01305   0.01924   0.00617  -0.00692   0.00189
           A7          -0.01367   0.01016   0.01113  -0.01039   0.01427
           D1           0.01194   0.01300  -0.01178   0.01234  -0.02354
           D2          -0.00891  -0.01228   0.01383  -0.01188   0.01032
           D3          -0.00144   0.00134   0.00176  -0.00282   0.00603
                          A6        A7        D1        D2        D3
           A6           0.15087
           A7          -0.00106   0.17890
           D1          -0.00606  -0.02343   0.02642
           D2           0.01058   0.02176  -0.01639   0.02639
           D3          -0.00462  -0.00280  -0.00443  -0.00295   0.01672
 ITU=  1  1  1  1  0
     Eigenvalues ---    0.00606   0.10479   0.12668   0.15838   0.16883
     Eigenvalues ---    0.19378   0.27269   0.34818   0.35014   0.45018
     Eigenvalues ---    0.48518   0.56173
 En-DIIS/RFO-DIIS/Sim-DIIS IScMMF=       -3 using points:     5    4
 RFO step:  Lambda=-5.80444905D-06.
 NNeg= 0 NGDIIS= 2 SimSw=  2.50D-01 Rises=F DC= -2.00D-05 SmlDif=  1.00D-05
 NRisDI= 0 DoIntr=F SqrtH=F CThrHd= 10.0 CDAdj=  3.0
 RMS Error=  0.4537105668D-02 NUsed= 2 OKEnD=T EnDIS=F
 InvSVX:  RCond= 8.31D-04 Info=           0 Equed=N FErr=  1.58D-15 BErr=  1.83D-17
 DidBck=F Rises=F RFO-DIIS coefs:    1.29008   -0.29008
 Iteration  1 RMS(Cart)=  0.00312411 RMS(Int)=  0.00001706
 Iteration  2 RMS(Cart)=  0.00001456 RMS(Int)=  0.00000104
 Iteration  3 RMS(Cart)=  0.00000000 RMS(Int)=  0.00000104
 ITry= 1 IFail=0 DXMaxC= 6.66D-03 DCOld= 1.00D+10 DXMaxT= 4.56D-01 DXLimC= 3.00D+00 Rises=F
 Variable       Old X    -DE/DX   Delta X   Delta X   Delta X     New X
                                 (Linear)    (Quad)   (Total)
    R1        2.63229  -0.00031   0.00124  -0.00136  -0.00012   2.63217
    R2        2.60131   0.00066  -0.00027   0.00134   0.00107   2.60238
    R3        2.06642  -0.00000  -0.00025   0.00013  -0.00012   2.06631
    R4        2.05704  -0.00007  -0.00003  -0.00011  -0.00014   2.05690
    R5        1.82030  -0.00023  -0.00033  -0.00010  -0.00042   1.81988
    A1        1.94000  -0.00006   0.00034  -0.00084  -0.00050   1.93950
    A2        1.85069   0.00031  -0.00076   0.00290   0.00214   1.85283
    A3        1.87945  -0.00002  -0.00081   0.00050  -0.00031   1.87913
    A4        1.97174   0.00006   0.00029  -0.00015   0.00014   1.97188
    A5        1.87363  -0.00017   0.00176  -0.00218  -0.00042   1.87321
    A6        1.94714  -0.00011  -0.00092  -0.00016  -0.00108   1.94606
    A7        1.91088  -0.00048   0.00022  -0.00241  -0.00219   1.90868
    D1        1.22345   0.00027   0.00928   0.00174   0.01103   1.23448
    D2       -0.85457  -0.00012   0.00982  -0.00128   0.00854  -0.84603
    D3       -3.00852   0.00011   0.00954   0.00058   0.01012  -2.99840
         Item               Value     Threshold  Converged?
 Maximum Force            0.000657     0.000015     NO 
 RMS     Force            0.000267     0.000010     NO 
 Maximum Displacement     0.006660     0.000060     NO 
 RMS     Displacement     0.003126     0.000040     NO 
 Predicted change in Energy=-2.902750D-06
 Lowest energy point so far.  Saving SCF results.
 GradGradGradGradGradGradGradGradGradGradGradGradGradGradGradGradGradGrad

 Leave Link  103 at Sun Sep 13 22:08:40 2026, MaxMem=   805306368 cpu:               0.0 elap:               0.1
 (Enter /app1/ia32-64/Gaussian/Rev-C.02/g16/l202.exe)
                          Input orientation:                          
 ---------------------------------------------------------------------
 Center     Atomic      Atomic             Coordinates (Angstroms)
 Number     Number       Type             X           Y           Z
 ---------------------------------------------------------------------
      1          6           0        0.018097   -0.008302    0.003635
      2          9           0       -0.085482    0.018126    1.392410
      3          8           0        1.335137    0.031801   -0.396685
      4          1           0       -0.499967   -0.914144   -0.322980
      5          1           0       -0.464999    0.888147   -0.380750
      6          1           0        1.759113   -0.806321   -0.183989
 ---------------------------------------------------------------------
                    Distance matrix (angstroms):
                    1          2          3          4          5
     1  C    0.000000
     2  F    1.392883   0.000000
     3  O    1.377120   2.284559   0.000000
     4  H    1.093443   1.995868   2.065878   0.000000
     5  H    1.088464   2.011236   1.993508   1.803555   0.000000
     6  H    1.924364   2.562671   0.963039   2.265919   2.802965
                    6
     6  H    0.000000
 Stoichiometry    CH3FO
 Framework group  C1[X(CH3FO)]
 Deg. of freedom    12
 Full point group                 C1      NOp   1
 RotChk:  IX=0 Diff= 4.80D-03
 Largest Abelian subgroup         C1      NOp   1
 Largest concise Abelian subgroup C1      NOp   1
                         Standard orientation:                         
 ---------------------------------------------------------------------
 Center     Atomic      Atomic             Coordinates (Angstroms)
 Number     Number       Type             X           Y           Z
 ---------------------------------------------------------------------
      1          6           0        0.013157    0.510218    0.046907
      2          9           0        1.136603   -0.310021   -0.025196
      3          8           0       -1.144141   -0.217457   -0.119260
      4          1           0        0.065517    1.013494    1.016230
      5          1           0        0.069931    1.221184   -0.775321
      6          1           0       -1.290699   -0.766139    0.658501
 ---------------------------------------------------------------------
 Rotational constants (GHZ):          45.7783495          10.2254436           9.0433091
 Leave Link  202 at Sun Sep 13 22:08:40 2026, MaxMem=   805306368 cpu:               0.0 elap:               0.0
 (Enter /app1/ia32-64/Gaussian/Rev-C.02/g16/l301.exe)
 Standard basis: CC-pVTZ (5D, 7F)
 Ernie: Thresh=  0.10000D-02 Tol=  0.10000D-05 Strict=F.
 Ernie:  9 primitive shells out of 102 were deleted.
 There are   150 symmetry adapted cartesian basis functions of A   symmetry.
 There are   132 symmetry adapted basis functions of A   symmetry.
   132 basis functions,   207 primitive gaussians,   150 cartesian basis functions
    13 alpha electrons       13 beta electrons
       nuclear repulsion energy        79.0053691298 Hartrees.
 IExCor=  402 DFT=T Ex+Corr=B3LYP ExCW=0 ScaHFX=  0.200000
 ScaDFX=  0.800000  0.720000  1.000000  0.810000 ScalE2=  1.000000  1.000000
 IRadAn=      5 IRanWt=     -1 IRanGd=            0 ICorTp=0 IEmpDi=  4
 NAtoms=    6 NActive=    6 NUniq=    6 SFac= 1.00D+00 NAtFMM=   60 NAOKFM=F Big=F
 Integral buffers will be    131072 words long.
 Raffenetti 2 integral format.
 Two-electron integral symmetry is turned on.
 Leave Link  301 at Sun Sep 13 22:08:40 2026, MaxMem=   805306368 cpu:               0.0 elap:               0.0
 (Enter /app1/ia32-64/Gaussian/Rev-C.02/g16/l302.exe)
 NPDir=0 NMtPBC=     1 NCelOv=     1 NCel=       1 NClECP=     1 NCelD=      1
         NCelK=      1 NCelE2=     1 NClLst=     1 CellRange=     0.0.
 One-electron integrals computed using PRISM.
 One-electron integral symmetry used in STVInt
 NBasis=   132 RedAO= T EigKep=  1.90D-03  NBF=   132
 NBsUse=   132 1.00D-06 EigRej= -1.00D+00 NBFU=   132
 Precomputing XC quadrature grid using
 IXCGrd= 4 IRadAn=           5 IRanWt=          -1 IRanGd=           0 AccXCQ= 0.00D+00.
 Generated NRdTot=       0 NPtTot=           0 NUsed=           0 NTot=          32
 NSgBfM=   150   150   150   150   150 MxSgAt=     6 MxSgA2=     6.
 Leave Link  302 at Sun Sep 13 22:08:41 2026, MaxMem=   805306368 cpu:               0.1 elap:               0.1
 (Enter /app1/ia32-64/Gaussian/Rev-C.02/g16/l303.exe)
 DipDrv:  MaxL=1.
 Leave Link  303 at Sun Sep 13 22:08:41 2026, MaxMem=   805306368 cpu:               0.0 elap:               0.0
 (Enter /app1/ia32-64/Gaussian/Rev-C.02/g16/l401.exe)
 Initial guess from the checkpoint file:  "ch2foh.chk"
 B after Tr=     0.000000   -0.000000   -0.000000
         Rot=    0.999999    0.001258    0.000157    0.000047 Ang=   0.15 deg.
 Guess basis will be translated and rotated to current coordinates.
 JPrj=2 DoOrth=T DoCkMO=T.
 Leave Link  401 at Sun Sep 13 22:08:41 2026, MaxMem=   805306368 cpu:               0.1 elap:               0.1
 (Enter /app1/ia32-64/Gaussian/Rev-C.02/g16/l502.exe)
 Keep R1 ints in memory in canonical form, NReq=40547587.
 FoFCou: FMM=F IPFlag=           0 FMFlag=           0 FMFlg1=           0
         NFxFlg=           0 DoJE=F BraDBF=F KetDBF=F FulRan=T
         wScrn=  0.000000 ICntrl=       600 IOpCl=  0 I1Cent=           0 NGrid=           0
         NMat0=    1 NMatS0=   8778 NMatT0=    0 NMatD0=    1 NMtDS0=    0 NMtDT0=    0
 Symmetry not used in FoFCou.
 Two-electron integral symmetry not used.
 Closed shell SCF:
 Using DIIS extrapolation, IDIIS=  1040.
 NGot=   805306368 LenX=   766727867 LenY=   766704926
 Requested convergence on RMS density matrix=1.00D-08 within 128 cycles.
 Requested convergence on MAX density matrix=1.00D-06.
 Requested convergence on             energy=1.00D-06.
 No special actions if energy rises.

 Cycle   1  Pass 1  IDiag  1:
 E= -215.057771405202    
 DIIS: error= 2.91D-04 at cycle   1 NSaved=   1.
 NSaved= 1 IEnMin= 1 EnMin= -215.057771405202     IErMin= 1 ErrMin= 2.91D-04
 ErrMax= 2.91D-04  0.00D+00 EMaxC= 1.00D-01 BMatC= 1.07D-05 BMatP= 1.07D-05
 IDIUse=3 WtCom= 9.97D-01 WtEn= 2.91D-03
 Coeff-Com:  0.100D+01
 Coeff-En:   0.100D+01
 Coeff:      0.100D+01
 Gap=     0.957 Goal=   None    Shift=    0.000
 RMSDP=2.84D-05 MaxDP=6.38D-04              OVMax= 1.47D-03

 Cycle   2  Pass 1  IDiag  1:
 E= -215.057782512469     Delta-E=       -0.000011107267 Rises=F Damp=F
 DIIS: error= 3.83D-05 at cycle   2 NSaved=   2.
 NSaved= 2 IEnMin= 2 EnMin= -215.057782512469     IErMin= 2 ErrMin= 3.83D-05
 ErrMax= 3.83D-05  0.00D+00 EMaxC= 1.00D-01 BMatC= 2.91D-07 BMatP= 1.07D-05
 IDIUse=1 WtCom= 1.00D+00 WtEn= 0.00D+00
 Coeff-Com: -0.114D-01 0.101D+01
 Coeff:     -0.114D-01 0.101D+01
 Gap=     0.348 Goal=   None    Shift=    0.000
 RMSDP=4.16D-06 MaxDP=7.36D-05 DE=-1.11D-05 OVMax= 2.13D-04

 Cycle   3  Pass 1  IDiag  1:
 E= -215.057782475018     Delta-E=        0.000000037451 Rises=F Damp=F
 DIIS: error= 4.70D-05 at cycle   3 NSaved=   3.
 NSaved= 3 IEnMin= 2 EnMin= -215.057782512469     IErMin= 2 ErrMin= 3.83D-05
 ErrMax= 4.70D-05  0.00D+00 EMaxC= 1.00D-01 BMatC= 3.97D-07 BMatP= 2.91D-07
 IDIUse=1 WtCom= 1.00D+00 WtEn= 0.00D+00
 Coeff-Com: -0.261D-01 0.563D+00 0.463D+00
 Coeff:     -0.261D-01 0.563D+00 0.463D+00
 Gap=     0.348 Goal=   None    Shift=    0.000
 RMSDP=2.66D-06 MaxDP=4.96D-05 DE= 3.75D-08 OVMax= 1.40D-04

 Cycle   4  Pass 1  IDiag  1:
 E= -215.057782716149     Delta-E=       -0.000000241131 Rises=F Damp=F
 DIIS: error= 8.82D-06 at cycle   4 NSaved=   4.
 NSaved= 4 IEnMin= 4 EnMin= -215.057782716149     IErMin= 4 ErrMin= 8.82D-06
 ErrMax= 8.82D-06  0.00D+00 EMaxC= 1.00D-01 BMatC= 2.13D-08 BMatP= 2.91D-07
 IDIUse=1 WtCom= 1.00D+00 WtEn= 0.00D+00
 Coeff-Com: -0.794D-02 0.140D+00 0.224D+00 0.643D+00
 Coeff:     -0.794D-02 0.140D+00 0.224D+00 0.643D+00
 Gap=     0.348 Goal=   None    Shift=    0.000
 RMSDP=6.14D-07 MaxDP=9.76D-06 DE=-2.41D-07 OVMax= 3.19D-05

 Cycle   5  Pass 1  IDiag  1:
 E= -215.057782729376     Delta-E=       -0.000000013227 Rises=F Damp=F
 DIIS: error= 1.49D-06 at cycle   5 NSaved=   5.
 NSaved= 5 IEnMin= 5 EnMin= -215.057782729376     IErMin= 5 ErrMin= 1.49D-06
 ErrMax= 1.49D-06  0.00D+00 EMaxC= 1.00D-01 BMatC= 4.90D-10 BMatP= 2.13D-08
 IDIUse=1 WtCom= 1.00D+00 WtEn= 0.00D+00
 Coeff-Com: -0.145D-02 0.172D-01 0.562D-01 0.220D+00 0.708D+00
 Coeff:     -0.145D-02 0.172D-01 0.562D-01 0.220D+00 0.708D+00
 Gap=     0.348 Goal=   None    Shift=    0.000
 RMSDP=1.34D-07 MaxDP=2.33D-06 DE=-1.32D-08 OVMax= 5.14D-06

 Cycle   6  Pass 1  IDiag  1:
 E= -215.057782729612     Delta-E=       -0.000000000236 Rises=F Damp=F
 DIIS: error= 6.71D-07 at cycle   6 NSaved=   6.
 NSaved= 6 IEnMin= 6 EnMin= -215.057782729612     IErMin= 6 ErrMin= 6.71D-07
 ErrMax= 6.71D-07  0.00D+00 EMaxC= 1.00D-01 BMatC= 1.16D-10 BMatP= 4.90D-10
 IDIUse=1 WtCom= 1.00D+00 WtEn= 0.00D+00
 Coeff-Com:  0.499D-04-0.700D-02 0.682D-02 0.572D-01 0.384D+00 0.559D+00
 Coeff:      0.499D-04-0.700D-02 0.682D-02 0.572D-01 0.384D+00 0.559D+00
 Gap=     0.348 Goal=   None    Shift=    0.000
 RMSDP=4.69D-08 MaxDP=7.94D-07 DE=-2.36D-10 OVMax= 1.88D-06

 Cycle   7  Pass 1  IDiag  1:
 E= -215.057782729678     Delta-E=       -0.000000000065 Rises=F Damp=F
 DIIS: error= 1.51D-07 at cycle   7 NSaved=   7.
 NSaved= 7 IEnMin= 7 EnMin= -215.057782729678     IErMin= 7 ErrMin= 1.51D-07
 ErrMax= 1.51D-07  0.00D+00 EMaxC= 1.00D-01 BMatC= 3.86D-12 BMatP= 1.16D-10
 IDIUse=1 WtCom= 1.00D+00 WtEn= 0.00D+00
 Coeff-Com:  0.101D-03-0.417D-02-0.345D-03 0.131D-01 0.115D+00 0.236D+00
 Coeff-Com:  0.641D+00
 Coeff:      0.101D-03-0.417D-02-0.345D-03 0.131D-01 0.115D+00 0.236D+00
 Coeff:      0.641D+00
 Gap=     0.348 Goal=   None    Shift=    0.000
 RMSDP=9.21D-09 MaxDP=2.42D-07 DE=-6.51D-11 OVMax= 5.87D-07

 SCF Done:  E(RB3LYP) =  -215.057782730     A.U. after    7 cycles
            NFock=  7  Conv=0.92D-08     -V/T= 2.0055
 KE= 2.138834965564D+02 PE=-6.668904171117D+02 EE= 1.589437686959D+02
 Leave Link  502 at Sun Sep 13 22:08:50 2026, MaxMem=   805306368 cpu:               7.2 elap:               9.3
 (Enter /app1/ia32-64/Gaussian/Rev-C.02/g16/l701.exe)
 ... and contract with generalized density number  0.
 Compute integral first derivatives.
 Leave Link  701 at Sun Sep 13 22:08:50 2026, MaxMem=   805306368 cpu:               0.1 elap:               0.2
 (Enter /app1/ia32-64/Gaussian/Rev-C.02/g16/l702.exe)
 L702 exits ... SP integral derivatives will be done elsewhere.
 Leave Link  702 at Sun Sep 13 22:08:51 2026, MaxMem=   805306368 cpu:               0.0 elap:               0.0
 (Enter /app1/ia32-64/Gaussian/Rev-C.02/g16/l703.exe)
 Integral derivatives from FoFJK, PRISM(SPDF).
 Compute integral first derivatives, UseDBF=F ICtDFT=           0.
 Calling FoFJK, ICntrl=      2127 FMM=F ISym2X=0 I1Cent= 0 IOpClX= 0 NMat=1 NMatS=1 NMatT=0.
 FoFJK:  IHMeth= 1 ICntrl=    2127 DoSepK=F KAlg= 0 I1Cent=           0 FoldK=F
 IRaf=         0 NMat=       1 IRICut=       1 DoRegI=T DoRafI=F ISym2E= 0 IDoP0=0 IntGTp=1.
 FoFCou: FMM=F IPFlag=           0 FMFlag=      100000 FMFlg1=         800
         NFxFlg=           0 DoJE=F BraDBF=F KetDBF=F FulRan=T
         wScrn=  0.000000 ICntrl=      2127 IOpCl=  0 I1Cent=           0 NGrid=           0
         NMat0=    1 NMatS0=      1 NMatT0=    0 NMatD0=    1 NMtDS0=    0 NMtDT0=    0
 Symmetry not used in FoFCou.
 Leave Link  703 at Sun Sep 13 22:08:56 2026, MaxMem=   805306368 cpu:               5.1 elap:               5.1
 (Enter /app1/ia32-64/Gaussian/Rev-C.02/g16/l716.exe)
 Dipole        =-3.18291251D-01 2.99204559D-01 5.65431339D-01
 ***** Axes restored to original set *****
 -------------------------------------------------------------------
 Center     Atomic                   Forces (Hartrees/Bohr)
 Number     Number              X              Y              Z
 -------------------------------------------------------------------
      1        6          -0.000420640   -0.000031649    0.000669251
      2        9           0.000008435    0.000007540   -0.000440294
      3        8           0.000425300    0.000057960   -0.000140463
      4        1           0.000022163    0.000004443   -0.000024098
      5        1           0.000004890   -0.000012776   -0.000036025
      6        1          -0.000040148   -0.000025518   -0.000028371
 -------------------------------------------------------------------
 Cartesian Forces:  Max     0.000669251 RMS     0.000239146
 Leave Link  716 at Sun Sep 13 22:08:56 2026, MaxMem=   805306368 cpu:               0.0 elap:               0.0
 (Enter /app1/ia32-64/Gaussian/Rev-C.02/g16/l103.exe)

 GradGradGradGradGradGradGradGradGradGradGradGradGradGradGradGradGradGrad
 Berny optimization.
 Using GEDIIS/GDIIS optimizer.
 FormGI is forming the generalized inverse of G from B-inverse, IUseBI=4.
 Internal  Forces:  Max     0.000439415 RMS     0.000160356
 Search for a local minimum.
 Step number   6 out of a maximum of   25
 All quantities printed in internal units (Hartrees-Bohrs-Radians)
 RMS Force = .16036D-03 SwitMx=.10000D-02 MixMth= 2
 Mixed Optimization -- En-DIIS/RFO-DIIS
 Swapping is turned off.
 Update second derivatives using D2CorX and points    1    2    3    4    5
                                                      6
 DE= -3.63D-06 DEPred=-2.90D-06 R= 1.25D+00
 TightC=F SS=  1.41D+00  RLast= 1.76D-02 DXNew= 7.6700D-01 5.2765D-02
 Trust test= 1.25D+00 RLast= 1.76D-02 DXMaxT set to 4.56D-01
 The second derivative matrix:
                          R1        R2        R3        R4        R5
           R1           0.48742
           R2           0.05094   0.39550
           R3          -0.00287   0.00131   0.34869
           R4          -0.00506   0.00236  -0.00055   0.34964
           R5          -0.02661   0.01068  -0.00013   0.00323   0.56496
           A1          -0.00895   0.01766   0.00056  -0.00015  -0.00156
           A2           0.02693  -0.04202   0.00080  -0.00015   0.00423
           A3          -0.00105  -0.01656   0.00045   0.00100   0.00697
           A4           0.00524   0.01112  -0.00035  -0.00240  -0.00945
           A5          -0.00031   0.00993  -0.00422   0.00320  -0.00022
           A6          -0.02196   0.01789  -0.00095   0.00056   0.00052
           A7          -0.04290   0.02755  -0.00213   0.00556   0.01220
           D1           0.01546  -0.00960   0.00357  -0.00731  -0.01315
           D2          -0.02477  -0.00064   0.00125   0.00677   0.02008
           D3          -0.00219   0.01144  -0.00164   0.00177  -0.00107
                          A1        A2        A3        A4        A5
           A1           0.27011
           A2          -0.02710   0.16031
           A3          -0.01270   0.01668   0.16443
           A4          -0.00067  -0.00394  -0.00222   0.16033
           A5          -0.00798   0.01173  -0.00183  -0.00305   0.17781
           A6          -0.00975   0.01960   0.00767  -0.00816  -0.00292
           A7          -0.00514   0.01051   0.01093  -0.01498   0.00901
           D1           0.00680   0.01619  -0.01177   0.01694  -0.02537
           D2          -0.00661  -0.01437   0.01593  -0.01390   0.01031
           D3          -0.00080  -0.00205   0.00290  -0.00301   0.01012
                          A6        A7        D1        D2        D3
           A6           0.15271
           A7          -0.00168   0.17681
           D1          -0.00502  -0.02610   0.03271
           D2           0.01152   0.02349  -0.01836   0.02781
           D3          -0.00509   0.00027  -0.00693  -0.00354   0.01450
 ITU=  1  1  1  1  1  0
     Eigenvalues ---    0.00551   0.09816   0.12766   0.15060   0.17536
     Eigenvalues ---    0.19041   0.27048   0.34809   0.35026   0.39697
     Eigenvalues ---    0.50677   0.57754
 En-DIIS/RFO-DIIS/Sim-DIIS IScMMF=       -3 using points:     6    5    4
 RFO step:  Lambda=-1.48715225D-06.
 NNeg= 0 NGDIIS= 3 SimSw=  2.50D-01 Rises=F DC= -3.63D-06 SmlDif=  1.00D-05
 NRisDI= 0 DoIntr=F SqrtH=F CThrHd= 10.0 CDAdj=  3.0
 RMS Error=  0.1716297087D-02 NUsed= 3 OKEnD=F EnDIS=F
 InvSVX:  RCond= 2.75D-06 Info=           0 Equed=N FErr=  2.60D-14 BErr=  4.93D-17
 DidBck=F Rises=F RFO-DIIS coefs:    1.41892   -0.43502    0.01611
 Iteration  1 RMS(Cart)=  0.00125523 RMS(Int)=  0.00000229
 Iteration  2 RMS(Cart)=  0.00000187 RMS(Int)=  0.00000011
 Iteration  3 RMS(Cart)=  0.00000000 RMS(Int)=  0.00000011
 ITry= 1 IFail=0 DXMaxC= 2.77D-03 DCOld= 1.00D+10 DXMaxT= 4.56D-01 DXLimC= 3.00D+00 Rises=F
 Variable       Old X    -DE/DX   Delta X   Delta X   Delta X     New X
                                 (Linear)    (Quad)   (Total)
    R1        2.63217  -0.00044  -0.00012  -0.00102  -0.00114   2.63103
    R2        2.60238   0.00042   0.00046   0.00091   0.00137   2.60375
    R3        2.06631  -0.00001  -0.00004  -0.00004  -0.00008   2.06623
    R4        2.05690   0.00000  -0.00006   0.00005  -0.00001   2.05689
    R5        1.81988  -0.00000  -0.00016   0.00007  -0.00009   1.81979
    A1        1.93950   0.00007  -0.00023   0.00046   0.00023   1.93973
    A2        1.85283   0.00002   0.00094  -0.00017   0.00076   1.85359
    A3        1.87913   0.00001  -0.00009   0.00027   0.00018   1.87931
    A4        1.97188  -0.00005   0.00004  -0.00057  -0.00053   1.97135
    A5        1.87321  -0.00003  -0.00027   0.00015  -0.00012   1.87309
    A6        1.94606  -0.00001  -0.00040  -0.00009  -0.00049   1.94557
    A7        1.90868  -0.00006  -0.00093   0.00019  -0.00074   1.90794
    D1        1.23448   0.00003   0.00410  -0.00031   0.00380   1.23828
    D2       -0.84603  -0.00001   0.00303  -0.00002   0.00301  -0.84301
    D3       -2.99840   0.00006   0.00371   0.00036   0.00407  -2.99433
         Item               Value     Threshold  Converged?
 Maximum Force            0.000439     0.000015     NO 
 RMS     Force            0.000160     0.000010     NO 
 Maximum Displacement     0.002767     0.000060     NO 
 RMS     Displacement     0.001255     0.000040     NO 
 Predicted change in Energy=-7.434309D-07
 Lowest energy point so far.  Saving SCF results.
 GradGradGradGradGradGradGradGradGradGradGradGradGradGradGradGradGradGrad

 Leave Link  103 at Sun Sep 13 22:08:56 2026, MaxMem=   805306368 cpu:               0.0 elap:               0.1
 (Enter /app1/ia32-64/Gaussian/Rev-C.02/g16/l202.exe)
                          Input orientation:                          
 ---------------------------------------------------------------------
 Center     Atomic      Atomic             Coordinates (Angstroms)
 Number     Number       Type             X           Y           Z
 ---------------------------------------------------------------------
      1          6           0        0.018065   -0.008224    0.004328
      2          9           0       -0.086214    0.018773    1.392435
      3          8           0        1.335900    0.032258   -0.395831
      4          1           0       -0.499242   -0.914216   -0.322935
      5          1           0       -0.465234    0.887744   -0.380902
      6          1           0        1.758623   -0.807028   -0.185454
 ---------------------------------------------------------------------
                    Distance matrix (angstroms):
                    1          2          3          4          5
     1  C    0.000000
     2  F    1.392281   0.000000
     3  O    1.377844   2.284839   0.000000
     4  H    1.093403   1.995885   2.066125   0.000000
     5  H    1.088457   2.010844   1.994032   1.803213   0.000000
     6  H    1.924486   2.564197   0.962992   2.264585   2.802854
                    6
     6  H    0.000000
 Stoichiometry    CH3FO
 Framework group  C1[X(CH3FO)]
 Deg. of freedom    12
 Full point group                 C1      NOp   1
 RotChk:  IX=0 Diff= 1.63D-03
 Largest Abelian subgroup         C1      NOp   1
 Largest concise Abelian subgroup C1      NOp   1
                         Standard orientation:                         
 ---------------------------------------------------------------------
 Center     Atomic      Atomic             Coordinates (Angstroms)
 Number     Number       Type             X           Y           Z
 ---------------------------------------------------------------------
      1          6           0        0.013804    0.510012    0.046744
      2          9           0        1.136562   -0.310177   -0.025022
      3          8           0       -1.144443   -0.217516   -0.119453
      4          1           0        0.065464    1.013858    1.015763
      5          1           0        0.070731    1.220921   -0.775514
      6          1           0       -1.292538   -0.763131    0.660114
 ---------------------------------------------------------------------
 Rotational constants (GHZ):          45.7916711          10.2221205           9.0417953
 Leave Link  202 at Sun Sep 13 22:08:56 2026, MaxMem=   805306368 cpu:               0.0 elap:               0.0
 (Enter /app1/ia32-64/Gaussian/Rev-C.02/g16/l301.exe)
 Standard basis: CC-pVTZ (5D, 7F)
 Ernie: Thresh=  0.10000D-02 Tol=  0.10000D-05 Strict=F.
 Ernie:  9 primitive shells out of 102 were deleted.
 There are   150 symmetry adapted cartesian basis functions of A   symmetry.
 There are   132 symmetry adapted basis functions of A   symmetry.
   132 basis functions,   207 primitive gaussians,   150 cartesian basis functions
    13 alpha electrons       13 beta electrons
       nuclear repulsion energy        79.0014703834 Hartrees.
 IExCor=  402 DFT=T Ex+Corr=B3LYP ExCW=0 ScaHFX=  0.200000
 ScaDFX=  0.800000  0.720000  1.000000  0.810000 ScalE2=  1.000000  1.000000
 IRadAn=      5 IRanWt=     -1 IRanGd=            0 ICorTp=0 IEmpDi=  4
 NAtoms=    6 NActive=    6 NUniq=    6 SFac= 1.00D+00 NAtFMM=   60 NAOKFM=F Big=F
 Integral buffers will be    131072 words long.
 Raffenetti 2 integral format.
 Two-electron integral symmetry is turned on.
 Leave Link  301 at Sun Sep 13 22:08:58 2026, MaxMem=   805306368 cpu:               0.0 elap:               0.3
 (Enter /app1/ia32-64/Gaussian/Rev-C.02/g16/l302.exe)
 NPDir=0 NMtPBC=     1 NCelOv=     1 NCel=       1 NClECP=     1 NCelD=      1
         NCelK=      1 NCelE2=     1 NClLst=     1 CellRange=     0.0.
 One-electron integrals computed using PRISM.
 One-electron integral symmetry used in STVInt
 NBasis=   132 RedAO= T EigKep=  1.90D-03  NBF=   132
 NBsUse=   132 1.00D-06 EigRej= -1.00D+00 NBFU=   132
 Precomputing XC quadrature grid using
 IXCGrd= 4 IRadAn=           5 IRanWt=          -1 IRanGd=           0 AccXCQ= 0.00D+00.
 Generated NRdTot=       0 NPtTot=           0 NUsed=           0 NTot=          32
 NSgBfM=   150   150   150   150   150 MxSgAt=     6 MxSgA2=     6.
 Leave Link  302 at Sun Sep 13 22:08:58 2026, MaxMem=   805306368 cpu:               0.1 elap:               0.1
 (Enter /app1/ia32-64/Gaussian/Rev-C.02/g16/l303.exe)
 DipDrv:  MaxL=1.
 Leave Link  303 at Sun Sep 13 22:08:58 2026, MaxMem=   805306368 cpu:               0.0 elap:               0.0
 (Enter /app1/ia32-64/Gaussian/Rev-C.02/g16/l401.exe)
 Initial guess from the checkpoint file:  "ch2foh.chk"
 B after Tr=    -0.000000    0.000000    0.000000
         Rot=    1.000000    0.000320    0.000054    0.000167 Ang=   0.04 deg.
 Guess basis will be translated and rotated to current coordinates.
 JPrj=2 DoOrth=T DoCkMO=T.
 Leave Link  401 at Sun Sep 13 22:08:59 2026, MaxMem=   805306368 cpu:               0.1 elap:               0.1
 (Enter /app1/ia32-64/Gaussian/Rev-C.02/g16/l502.exe)
 Keep R1 ints in memory in canonical form, NReq=40547587.
 FoFCou: FMM=F IPFlag=           0 FMFlag=           0 FMFlg1=           0
         NFxFlg=           0 DoJE=F BraDBF=F KetDBF=F FulRan=T
         wScrn=  0.000000 ICntrl=       600 IOpCl=  0 I1Cent=           0 NGrid=           0
         NMat0=    1 NMatS0=   8778 NMatT0=    0 NMatD0=    1 NMtDS0=    0 NMtDT0=    0
 Symmetry not used in FoFCou.
 Two-electron integral symmetry not used.
 Closed shell SCF:
 Using DIIS extrapolation, IDIIS=  1040.
 NGot=   805306368 LenX=   766727867 LenY=   766704926
 Requested convergence on RMS density matrix=1.00D-08 within 128 cycles.
 Requested convergence on MAX density matrix=1.00D-06.
 Requested convergence on             energy=1.00D-06.
 No special actions if energy rises.

 Cycle   1  Pass 1  IDiag  1:
 E= -215.057781618423    
 DIIS: error= 1.12D-04 at cycle   1 NSaved=   1.
 NSaved= 1 IEnMin= 1 EnMin= -215.057781618423     IErMin= 1 ErrMin= 1.12D-04
 ErrMax= 1.12D-04  0.00D+00 EMaxC= 1.00D-01 BMatC= 1.87D-06 BMatP= 1.87D-06
 IDIUse=3 WtCom= 9.99D-01 WtEn= 1.12D-03
 Coeff-Com:  0.100D+01
 Coeff-En:   0.100D+01
 Coeff:      0.100D+01
 Gap=     0.957 Goal=   None    Shift=    0.000
 RMSDP=1.16D-05 MaxDP=2.40D-04              OVMax= 5.64D-04

 Cycle   2  Pass 1  IDiag  1:
 E= -215.057783511340     Delta-E=       -0.000001892916 Rises=F Damp=F
 DIIS: error= 3.26D-05 at cycle   2 NSaved=   2.
 NSaved= 2 IEnMin= 2 EnMin= -215.057783511340     IErMin= 2 ErrMin= 3.26D-05
 ErrMax= 3.26D-05  0.00D+00 EMaxC= 1.00D-01 BMatC= 1.99D-07 BMatP= 1.87D-06
 IDIUse=1 WtCom= 1.00D+00 WtEn= 0.00D+00
 Coeff-Com:  0.116D+00 0.884D+00
 Coeff:      0.116D+00 0.884D+00
 Gap=     0.348 Goal=   None    Shift=    0.000
 RMSDP=3.37D-06 MaxDP=5.45D-05 DE=-1.89D-06 OVMax= 1.64D-04

 Cycle   3  Pass 1  IDiag  1:
 E= -215.057783439335     Delta-E=        0.000000072005 Rises=F Damp=F
 DIIS: error= 3.70D-05 at cycle   3 NSaved=   3.
 NSaved= 3 IEnMin= 2 EnMin= -215.057783511340     IErMin= 2 ErrMin= 3.26D-05
 ErrMax= 3.70D-05  0.00D+00 EMaxC= 1.00D-01 BMatC= 3.19D-07 BMatP= 1.99D-07
 IDIUse=1 WtCom= 1.00D+00 WtEn= 0.00D+00
 Coeff-Com: -0.236D-01 0.568D+00 0.455D+00
 Coeff:     -0.236D-01 0.568D+00 0.455D+00
 Gap=     0.348 Goal=   None    Shift=    0.000
 RMSDP=2.10D-06 MaxDP=3.31D-05 DE= 7.20D-08 OVMax= 9.94D-05

 Cycle   4  Pass 1  IDiag  1:
 E= -215.057783632539     Delta-E=       -0.000000193205 Rises=F Damp=F
 DIIS: error= 2.79D-06 at cycle   4 NSaved=   4.
 NSaved= 4 IEnMin= 4 EnMin= -215.057783632539     IErMin= 4 ErrMin= 2.79D-06
 ErrMax= 2.79D-06  0.00D+00 EMaxC= 1.00D-01 BMatC= 2.23D-09 BMatP= 1.99D-07
 IDIUse=1 WtCom= 1.00D+00 WtEn= 0.00D+00
 Coeff-Com: -0.842D-02 0.127D+00 0.147D+00 0.734D+00
 Coeff:     -0.842D-02 0.127D+00 0.147D+00 0.734D+00
 Gap=     0.348 Goal=   None    Shift=    0.000
 RMSDP=2.24D-07 MaxDP=3.15D-06 DE=-1.93D-07 OVMax= 1.17D-05

 Cycle   5  Pass 1  IDiag  1:
 E= -215.057783633954     Delta-E=       -0.000000001415 Rises=F Damp=F
 DIIS: error= 5.62D-07 at cycle   5 NSaved=   5.
 NSaved= 5 IEnMin= 5 EnMin= -215.057783633954     IErMin= 5 ErrMin= 5.62D-07
 ErrMax= 5.62D-07  0.00D+00 EMaxC= 1.00D-01 BMatC= 7.29D-11 BMatP= 2.23D-09
 IDIUse=1 WtCom= 1.00D+00 WtEn= 0.00D+00
 Coeff-Com: -0.167D-02 0.154D-01 0.289D-01 0.226D+00 0.731D+00
 Coeff:     -0.167D-02 0.154D-01 0.289D-01 0.226D+00 0.731D+00
 Gap=     0.348 Goal=   None    Shift=    0.000
 RMSDP=5.83D-08 MaxDP=1.12D-06 DE=-1.42D-09 OVMax= 2.25D-06

 Cycle   6  Pass 1  IDiag  1:
 E= -215.057783634001     Delta-E=       -0.000000000047 Rises=F Damp=F
 DIIS: error= 2.16D-07 at cycle   6 NSaved=   6.
 NSaved= 6 IEnMin= 6 EnMin= -215.057783634001     IErMin= 6 ErrMin= 2.16D-07
 ErrMax= 2.16D-07  0.00D+00 EMaxC= 1.00D-01 BMatC= 1.28D-11 BMatP= 7.29D-11
 IDIUse=1 WtCom= 1.00D+00 WtEn= 0.00D+00
 Coeff-Com: -0.298D-05-0.524D-02-0.733D-03 0.443D-01 0.341D+00 0.620D+00
 Coeff:     -0.298D-05-0.524D-02-0.733D-03 0.443D-01 0.341D+00 0.620D+00
 Gap=     0.348 Goal=   None    Shift=    0.000
 RMSDP=1.90D-08 MaxDP=3.83D-07 DE=-4.70D-11 OVMax= 8.11D-07

 Cycle   7  Pass 1  IDiag  1:
 E= -215.057783634011     Delta-E=       -0.000000000009 Rises=F Damp=F
 DIIS: error= 5.61D-08 at cycle   7 NSaved=   7.
 NSaved= 7 IEnMin= 7 EnMin= -215.057783634011     IErMin= 7 ErrMin= 5.61D-08
 ErrMax= 5.61D-08  0.00D+00 EMaxC= 1.00D-01 BMatC= 5.68D-13 BMatP= 1.28D-11
 IDIUse=1 WtCom= 1.00D+00 WtEn= 0.00D+00
 Coeff-Com:  0.693D-04-0.277D-02-0.186D-02 0.862D-02 0.974D-01 0.249D+00
 Coeff-Com:  0.650D+00
 Coeff:      0.693D-04-0.277D-02-0.186D-02 0.862D-02 0.974D-01 0.249D+00
 Coeff:      0.650D+00
 Gap=     0.348 Goal=   None    Shift=    0.000
 RMSDP=3.97D-09 MaxDP=6.18D-08 DE=-9.44D-12 OVMax= 2.17D-07

 SCF Done:  E(RB3LYP) =  -215.057783634     A.U. after    7 cycles
            NFock=  7  Conv=0.40D-08     -V/T= 2.0055
 KE= 2.138831110962D+02 PE=-6.668816381111D+02 EE= 1.589392729975D+02
 Leave Link  502 at Sun Sep 13 22:09:09 2026, MaxMem=   805306368 cpu:               7.0 elap:              10.1
 (Enter /app1/ia32-64/Gaussian/Rev-C.02/g16/l701.exe)
 ... and contract with generalized density number  0.
 Compute integral first derivatives.
 Leave Link  701 at Sun Sep 13 22:09:09 2026, MaxMem=   805306368 cpu:               0.1 elap:               0.2
 (Enter /app1/ia32-64/Gaussian/Rev-C.02/g16/l702.exe)
 L702 exits ... SP integral derivatives will be done elsewhere.
 Leave Link  702 at Sun Sep 13 22:09:09 2026, MaxMem=   805306368 cpu:               0.0 elap:               0.0
 (Enter /app1/ia32-64/Gaussian/Rev-C.02/g16/l703.exe)
 Integral derivatives from FoFJK, PRISM(SPDF).
 Compute integral first derivatives, UseDBF=F ICtDFT=           0.
 Calling FoFJK, ICntrl=      2127 FMM=F ISym2X=0 I1Cent= 0 IOpClX= 0 NMat=1 NMatS=1 NMatT=0.
 FoFJK:  IHMeth= 1 ICntrl=    2127 DoSepK=F KAlg= 0 I1Cent=           0 FoldK=F
 IRaf=         0 NMat=       1 IRICut=       1 DoRegI=T DoRafI=F ISym2E= 0 IDoP0=0 IntGTp=1.
 FoFCou: FMM=F IPFlag=           0 FMFlag=      100000 FMFlg1=         800
         NFxFlg=           0 DoJE=F BraDBF=F KetDBF=F FulRan=T
         wScrn=  0.000000 ICntrl=      2127 IOpCl=  0 I1Cent=           0 NGrid=           0
         NMat0=    1 NMatS0=      1 NMatT0=    0 NMatD0=    1 NMtDS0=    0 NMtDT0=    0
 Symmetry not used in FoFCou.
 Leave Link  703 at Sun Sep 13 22:09:14 2026, MaxMem=   805306368 cpu:               5.1 elap:               5.1
 (Enter /app1/ia32-64/Gaussian/Rev-C.02/g16/l716.exe)
 Dipole        =-3.17227324D-01 3.01087936D-01 5.66447877D-01
 ***** Axes restored to original set *****
 -------------------------------------------------------------------
 Center     Atomic                   Forces (Hartrees/Bohr)
 Number     Number              X              Y              Z
 -------------------------------------------------------------------
      1        6          -0.000093431    0.000047789    0.000259779
      2        9           0.000019180   -0.000024497   -0.000228832
      3        8          -0.000016347    0.000020822   -0.000009195
      4        1           0.000025279   -0.000033050    0.000010647
      5        1           0.000033285    0.000020371   -0.000025809
      6        1           0.000032035   -0.000031434   -0.000006591
 -------------------------------------------------------------------
 Cartesian Forces:  Max     0.000259779 RMS     0.000087784
 Leave Link  716 at Sun Sep 13 22:09:14 2026, MaxMem=   805306368 cpu:               0.0 elap:               0.0
 (Enter /app1/ia32-64/Gaussian/Rev-C.02/g16/l103.exe)

 GradGradGradGradGradGradGradGradGradGradGradGradGradGradGradGradGradGrad
 Berny optimization.
 Using GEDIIS/GDIIS optimizer.
 FormGI is forming the generalized inverse of G from B-inverse, IUseBI=4.
 Internal  Forces:  Max     0.000229991 RMS     0.000065463
 Search for a local minimum.
 Step number   7 out of a maximum of   25
 All quantities printed in internal units (Hartrees-Bohrs-Radians)
 RMS Force = .65463D-04 SwitMx=.10000D-02 MixMth= 2
 Mixed Optimization -- En-DIIS/RFO-DIIS
 Swapping is turned off.
 Update second derivatives using D2CorX and points    1    2    3    4    5
                                                      6    7
 DE= -9.04D-07 DEPred=-7.43D-07 R= 1.22D+00
 Trust test= 1.22D+00 RLast= 6.71D-03 DXMaxT set to 4.56D-01
 The second derivative matrix:
                          R1        R2        R3        R4        R5
           R1           0.40131
           R2           0.11465   0.41051
           R3          -0.00145  -0.00349   0.34889
           R4          -0.00443  -0.00217  -0.00034   0.34996
           R5          -0.02275  -0.00810   0.00046   0.00430   0.56853
           A1           0.00658   0.01414  -0.00066  -0.00055  -0.00473
           A2           0.02891  -0.03745   0.00094  -0.00063   0.00355
           A3           0.00399  -0.03475   0.00178   0.00163   0.01066
           A4          -0.00272   0.02295  -0.00060  -0.00268  -0.01100
           A5          -0.01399   0.02312  -0.00407   0.00311   0.00034
           A6          -0.01894  -0.00066  -0.00008   0.00150   0.00423
           A7          -0.05206   0.00589  -0.00074   0.00768   0.02041
           D1           0.01918  -0.00387   0.00346  -0.00844  -0.01541
           D2          -0.02547  -0.01041   0.00165   0.00792   0.02423
           D3           0.00409   0.01558  -0.00247   0.00140  -0.00302
                          A1        A2        A3        A4        A5
           A1           0.26834
           A2          -0.02699   0.15955
           A3          -0.01669   0.01693   0.16755
           A4           0.00114  -0.00324  -0.00244   0.16008
           A5          -0.00379   0.01179  -0.00395  -0.00348   0.17457
           A6          -0.01292   0.01910   0.01166  -0.00950  -0.00331
           A7          -0.00597   0.00732   0.01633  -0.01901   0.00694
           D1           0.00578   0.01874  -0.01439   0.01859  -0.02667
           D2          -0.00732  -0.01707   0.01741  -0.01570   0.01076
           D3           0.00073  -0.00314  -0.00032  -0.00180   0.01234
                          A6        A7        D1        D2        D3
           A6           0.15673
           A7           0.00578   0.19129
           D1          -0.00683  -0.03117   0.03436
           D2           0.01459   0.03087  -0.02222   0.03194
           D3          -0.00771  -0.00147  -0.00693  -0.00378   0.01582
 ITU=  0  1  1  1  1  1  0
     Eigenvalues ---    0.00533   0.09486   0.12970   0.14876   0.17526
     Eigenvalues ---    0.19850   0.27079   0.32903   0.34876   0.35206
     Eigenvalues ---    0.51717   0.58530
 En-DIIS/RFO-DIIS/Sim-DIIS IScMMF=       -3 using points:     7    6    5    4
 RFO step:  Lambda=-2.23027312D-07.
 NNeg= 0 NGDIIS= 4 SimSw=  2.50D-01 Rises=F DC= -9.04D-07 SmlDif=  1.00D-05
 NRisDI= 0 DoIntr=F SqrtH=F CThrHd= 10.0 CDAdj=  3.0
 RMS Error=  0.4169069413D-03 NUsed= 4 OKEnD=F EnDIS=F
 InvSVX:  RCond= 1.40D-07 Info=           0 Equed=N FErr=  6.16D-14 BErr=  2.92D-17
 DidBck=F Rises=F RFO-DIIS coefs:    1.37106   -0.39748    0.01591    0.01051
 Iteration  1 RMS(Cart)=  0.00031575 RMS(Int)=  0.00000013
 Iteration  2 RMS(Cart)=  0.00000010 RMS(Int)=  0.00000006
 ITry= 1 IFail=0 DXMaxC= 6.65D-04 DCOld= 1.00D+10 DXMaxT= 4.56D-01 DXLimC= 3.00D+00 Rises=F
 Variable       Old X    -DE/DX   Delta X   Delta X   Delta X     New X
                                 (Linear)    (Quad)   (Total)
    R1        2.63103  -0.00023  -0.00046  -0.00024  -0.00071   2.63032
    R2        2.60375   0.00002   0.00049  -0.00019   0.00030   2.60405
    R3        2.06623   0.00001  -0.00002   0.00004   0.00003   2.06626
    R4        2.05689   0.00001  -0.00000   0.00003   0.00003   2.05691
    R5        1.81979   0.00004  -0.00001   0.00005   0.00004   1.81983
    A1        1.93973   0.00001   0.00009  -0.00000   0.00009   1.93982
    A2        1.85359  -0.00001   0.00025  -0.00011   0.00015   1.85374
    A3        1.87931   0.00004   0.00010   0.00022   0.00032   1.87964
    A4        1.97135  -0.00004  -0.00021  -0.00009  -0.00030   1.97105
    A5        1.87309  -0.00005  -0.00010  -0.00028  -0.00038   1.87271
    A6        1.94557   0.00005  -0.00012   0.00028   0.00016   1.94572
    A7        1.90794   0.00004  -0.00022   0.00019  -0.00004   1.90791
    D1        1.23828  -0.00001   0.00078  -0.00007   0.00071   1.23899
    D2       -0.84301   0.00002   0.00054   0.00013   0.00067  -0.84235
    D3       -2.99433   0.00001   0.00090   0.00003   0.00093  -2.99341
         Item               Value     Threshold  Converged?
 Maximum Force            0.000230     0.000015     NO 
 RMS     Force            0.000065     0.000010     NO 
 Maximum Displacement     0.000665     0.000060     NO 
 RMS     Displacement     0.000316     0.000040     NO 
 Predicted change in Energy=-1.113223D-07
 Lowest energy point so far.  Saving SCF results.
 GradGradGradGradGradGradGradGradGradGradGradGradGradGradGradGradGradGrad

 Leave Link  103 at Sun Sep 13 22:09:17 2026, MaxMem=   805306368 cpu:               0.0 elap:               2.1
 (Enter /app1/ia32-64/Gaussian/Rev-C.02/g16/l202.exe)
                          Input orientation:                          
 ---------------------------------------------------------------------
 Center     Atomic      Atomic             Coordinates (Angstroms)
 Number     Number       Type             X           Y           Z
 ---------------------------------------------------------------------
      1          6           0        0.017962   -0.008190    0.004594
      2          9           0       -0.086385    0.018827    1.392322
      3          8           0        1.335938    0.032371   -0.395636
      4          1           0       -0.499038   -0.914319   -0.322820
      5          1           0       -0.465109    0.887755   -0.381014
      6          1           0        1.758530   -0.807138   -0.185806
 ---------------------------------------------------------------------
                    Distance matrix (angstroms):
                    1          2          3          4          5
     1  C    0.000000
     2  F    1.391907   0.000000
     3  O    1.378002   2.284728   0.000000
     4  H    1.093416   1.995684   2.066074   0.000000
     5  H    1.088471   2.010767   1.993907   1.803333   0.000000
     6  H    1.924616   2.564453   0.963010   2.264259   2.802737
                    6
     6  H    0.000000
 Stoichiometry    CH3FO
 Framework group  C1[X(CH3FO)]
 Deg. of freedom    12
 Full point group                 C1      NOp   1
 RotChk:  IX=0 Diff= 2.86D-04
 Largest Abelian subgroup         C1      NOp   1
 Largest concise Abelian subgroup C1      NOp   1
                         Standard orientation:                         
 ---------------------------------------------------------------------
 Center     Atomic      Atomic             Coordinates (Angstroms)
 Number     Number       Type             X           Y           Z
 ---------------------------------------------------------------------
      1          6           0        0.014081    0.509911    0.046735
      2          9           0        1.136434   -0.310199   -0.025017
      3          8           0       -1.144455   -0.217449   -0.119490
      4          1           0        0.065543    1.013646    1.015839
      5          1           0        0.070690    1.220841   -0.775544
      6          1           0       -1.292976   -0.762569    0.660366
 ---------------------------------------------------------------------
 Rotational constants (GHZ):          45.8011754          10.2227979           9.0428975
 Leave Link  202 at Sun Sep 13 22:09:17 2026, MaxMem=   805306368 cpu:               0.0 elap:               0.0
 (Enter /app1/ia32-64/Gaussian/Rev-C.02/g16/l301.exe)
 Standard basis: CC-pVTZ (5D, 7F)
 Ernie: Thresh=  0.10000D-02 Tol=  0.10000D-05 Strict=F.
 Ernie:  9 primitive shells out of 102 were deleted.
 There are   150 symmetry adapted cartesian basis functions of A   symmetry.
 There are   132 symmetry adapted basis functions of A   symmetry.
   132 basis functions,   207 primitive gaussians,   150 cartesian basis functions
    13 alpha electrons       13 beta electrons
       nuclear repulsion energy        79.0057608429 Hartrees.
 IExCor=  402 DFT=T Ex+Corr=B3LYP ExCW=0 ScaHFX=  0.200000
 ScaDFX=  0.800000  0.720000  1.000000  0.810000 ScalE2=  1.000000  1.000000
 IRadAn=      5 IRanWt=     -1 IRanGd=            0 ICorTp=0 IEmpDi=  4
 NAtoms=    6 NActive=    6 NUniq=    6 SFac= 1.00D+00 NAtFMM=   60 NAOKFM=F Big=F
 Integral buffers will be    131072 words long.
 Raffenetti 2 integral format.
 Two-electron integral symmetry is turned on.
 Leave Link  301 at Sun Sep 13 22:09:17 2026, MaxMem=   805306368 cpu:               0.0 elap:               0.0
 (Enter /app1/ia32-64/Gaussian/Rev-C.02/g16/l302.exe)
 NPDir=0 NMtPBC=     1 NCelOv=     1 NCel=       1 NClECP=     1 NCelD=      1
         NCelK=      1 NCelE2=     1 NClLst=     1 CellRange=     0.0.
 One-electron integrals computed using PRISM.
 One-electron integral symmetry used in STVInt
 NBasis=   132 RedAO= T EigKep=  1.90D-03  NBF=   132
 NBsUse=   132 1.00D-06 EigRej= -1.00D+00 NBFU=   132
 Precomputing XC quadrature grid using
 IXCGrd= 4 IRadAn=           5 IRanWt=          -1 IRanGd=           0 AccXCQ= 0.00D+00.
 Generated NRdTot=       0 NPtTot=           0 NUsed=           0 NTot=          32
 NSgBfM=   150   150   150   150   150 MxSgAt=     6 MxSgA2=     6.
 Leave Link  302 at Sun Sep 13 22:09:17 2026, MaxMem=   805306368 cpu:               0.1 elap:               0.1
 (Enter /app1/ia32-64/Gaussian/Rev-C.02/g16/l303.exe)
 DipDrv:  MaxL=1.
 Leave Link  303 at Sun Sep 13 22:09:17 2026, MaxMem=   805306368 cpu:               0.0 elap:               0.0
 (Enter /app1/ia32-64/Gaussian/Rev-C.02/g16/l401.exe)
 Initial guess from the checkpoint file:  "ch2foh.chk"
 B after Tr=     0.000000   -0.000000   -0.000000
         Rot=    1.000000    0.000016    0.000002    0.000054 Ang=   0.01 deg.
 Guess basis will be translated and rotated to current coordinates.
 JPrj=2 DoOrth=T DoCkMO=T.
 Leave Link  401 at Sun Sep 13 22:09:17 2026, MaxMem=   805306368 cpu:               0.1 elap:               0.1
 (Enter /app1/ia32-64/Gaussian/Rev-C.02/g16/l502.exe)
 Keep R1 ints in memory in canonical form, NReq=40547587.
 FoFCou: FMM=F IPFlag=           0 FMFlag=           0 FMFlg1=           0
         NFxFlg=           0 DoJE=F BraDBF=F KetDBF=F FulRan=T
         wScrn=  0.000000 ICntrl=       600 IOpCl=  0 I1Cent=           0 NGrid=           0
         NMat0=    1 NMatS0=   8778 NMatT0=    0 NMatD0=    1 NMtDS0=    0 NMtDT0=    0
 Symmetry not used in FoFCou.
 Two-electron integral symmetry not used.
 Closed shell SCF:
 Using DIIS extrapolation, IDIIS=  1040.
 NGot=   805306368 LenX=   766727867 LenY=   766704926
 Requested convergence on RMS density matrix=1.00D-08 within 128 cycles.
 Requested convergence on MAX density matrix=1.00D-06.
 Requested convergence on             energy=1.00D-06.
 No special actions if energy rises.

 Cycle   1  Pass 1  IDiag  1:
 E= -215.057783610019    
 DIIS: error= 2.31D-05 at cycle   1 NSaved=   1.
 NSaved= 1 IEnMin= 1 EnMin= -215.057783610019     IErMin= 1 ErrMin= 2.31D-05
 ErrMax= 2.31D-05  0.00D+00 EMaxC= 1.00D-01 BMatC= 1.54D-07 BMatP= 1.54D-07
 IDIUse=1 WtCom= 1.00D+00 WtEn= 0.00D+00
 Coeff-Com:  0.100D+01
 Coeff:      0.100D+01
 Gap=     0.957 Goal=   None    Shift=    0.000
 RMSDP=3.07D-06 MaxDP=5.66D-05              OVMax= 1.22D-04

 Cycle   2  Pass 1  IDiag  1:
 E= -215.057783748888     Delta-E=       -0.000000138870 Rises=F Damp=F
 DIIS: error= 1.38D-05 at cycle   2 NSaved=   2.
 NSaved= 2 IEnMin= 2 EnMin= -215.057783748888     IErMin= 2 ErrMin= 1.38D-05
 ErrMax= 1.38D-05  0.00D+00 EMaxC= 1.00D-01 BMatC= 3.58D-08 BMatP= 1.54D-07
 IDIUse=1 WtCom= 1.00D+00 WtEn= 0.00D+00
 Coeff-Com:  0.242D+00 0.758D+00
 Coeff:      0.242D+00 0.758D+00
 Gap=     0.348 Goal=   None    Shift=    0.000
 RMSDP=1.25D-06 MaxDP=2.11D-05 DE=-1.39D-07 OVMax= 5.70D-05

 Cycle   3  Pass 1  IDiag  1:
 E= -215.057783748076     Delta-E=        0.000000000812 Rises=F Damp=F
 DIIS: error= 1.16D-05 at cycle   3 NSaved=   3.
 NSaved= 3 IEnMin= 2 EnMin= -215.057783748888     IErMin= 3 ErrMin= 1.16D-05
 ErrMax= 1.16D-05  0.00D+00 EMaxC= 1.00D-01 BMatC= 3.53D-08 BMatP= 3.58D-08
 IDIUse=1 WtCom= 1.00D+00 WtEn= 0.00D+00
 Coeff-Com: -0.184D-01 0.502D+00 0.517D+00
 Coeff:     -0.184D-01 0.502D+00 0.517D+00
 Gap=     0.348 Goal=   None    Shift=    0.000
 RMSDP=7.07D-07 MaxDP=1.14D-05 DE= 8.12D-10 OVMax= 3.20D-05

 Cycle   4  Pass 1  IDiag  1:
 E= -215.057783769167     Delta-E=       -0.000000021091 Rises=F Damp=F
 DIIS: error= 1.21D-06 at cycle   4 NSaved=   4.
 NSaved= 4 IEnMin= 4 EnMin= -215.057783769167     IErMin= 4 ErrMin= 1.21D-06
 ErrMax= 1.21D-06  0.00D+00 EMaxC= 1.00D-01 BMatC= 1.54D-10 BMatP= 3.53D-08
 IDIUse=1 WtCom= 1.00D+00 WtEn= 0.00D+00
 Coeff-Com: -0.853D-02 0.102D+00 0.146D+00 0.760D+00
 Coeff:     -0.853D-02 0.102D+00 0.146D+00 0.760D+00
 Gap=     0.348 Goal=   None    Shift=    0.000
 RMSDP=5.39D-08 MaxDP=8.31D-07 DE=-2.11D-08 OVMax= 2.81D-06

 Cycle   5  Pass 1  IDiag  1:
 E= -215.057783769269     Delta-E=       -0.000000000101 Rises=F Damp=F
 DIIS: error= 1.06D-07 at cycle   5 NSaved=   5.
 NSaved= 5 IEnMin= 5 EnMin= -215.057783769269     IErMin= 5 ErrMin= 1.06D-07
 ErrMax= 1.06D-07  0.00D+00 EMaxC= 1.00D-01 BMatC= 3.16D-12 BMatP= 1.54D-10
 IDIUse=1 WtCom= 1.00D+00 WtEn= 0.00D+00
 Coeff-Com: -0.122D-02 0.780D-02 0.198D-01 0.185D+00 0.789D+00
 Coeff:     -0.122D-02 0.780D-02 0.198D-01 0.185D+00 0.789D+00
 Gap=     0.348 Goal=   None    Shift=    0.000
 RMSDP=1.37D-08 MaxDP=2.77D-07 DE=-1.01D-10 OVMax= 5.35D-07

 Cycle   6  Pass 1  IDiag  1:
 E= -215.057783769269     Delta-E=        0.000000000000 Rises=F Damp=F
 DIIS: error= 7.43D-08 at cycle   6 NSaved=   6.
 NSaved= 6 IEnMin= 5 EnMin= -215.057783769269     IErMin= 6 ErrMin= 7.43D-08
 ErrMax= 7.43D-08  0.00D+00 EMaxC= 1.00D-01 BMatC= 1.06D-12 BMatP= 3.16D-12
 IDIUse=1 WtCom= 1.00D+00 WtEn= 0.00D+00
 Coeff-Com: -0.901D-04-0.269D-02-0.113D-04 0.409D-01 0.414D+00 0.548D+00
 Coeff:     -0.901D-04-0.269D-02-0.113D-04 0.409D-01 0.414D+00 0.548D+00
 Gap=     0.348 Goal=   None    Shift=    0.000
 RMSDP=5.26D-09 MaxDP=9.32D-08 DE= 1.14D-13 OVMax= 1.89D-07

 SCF Done:  E(RB3LYP) =  -215.057783769     A.U. after    6 cycles
            NFock=  6  Conv=0.53D-08     -V/T= 2.0055
 KE= 2.138833757950D+02 PE=-6.668899818823D+02 EE= 1.589430614751D+02
 Leave Link  502 at Sun Sep 13 22:09:25 2026, MaxMem=   805306368 cpu:               6.3 elap:               7.7
 (Enter /app1/ia32-64/Gaussian/Rev-C.02/g16/l701.exe)
 ... and contract with generalized density number  0.
 Compute integral first derivatives.
 Leave Link  701 at Sun Sep 13 22:09:25 2026, MaxMem=   805306368 cpu:               0.1 elap:               0.2
 (Enter /app1/ia32-64/Gaussian/Rev-C.02/g16/l702.exe)
 L702 exits ... SP integral derivatives will be done elsewhere.
 Leave Link  702 at Sun Sep 13 22:09:26 2026, MaxMem=   805306368 cpu:               0.0 elap:               0.1
 (Enter /app1/ia32-64/Gaussian/Rev-C.02/g16/l703.exe)
 Integral derivatives from FoFJK, PRISM(SPDF).
 Compute integral first derivatives, UseDBF=F ICtDFT=           0.
 Calling FoFJK, ICntrl=      2127 FMM=F ISym2X=0 I1Cent= 0 IOpClX= 0 NMat=1 NMatS=1 NMatT=0.
 FoFJK:  IHMeth= 1 ICntrl=    2127 DoSepK=F KAlg= 0 I1Cent=           0 FoldK=F
 IRaf=         0 NMat=       1 IRICut=       1 DoRegI=T DoRafI=F ISym2E= 0 IDoP0=0 IntGTp=1.
 FoFCou: FMM=F IPFlag=           0 FMFlag=      100000 FMFlg1=         800
         NFxFlg=           0 DoJE=F BraDBF=F KetDBF=F FulRan=T
         wScrn=  0.000000 ICntrl=      2127 IOpCl=  0 I1Cent=           0 NGrid=           0
         NMat0=    1 NMatS0=      1 NMatT0=    0 NMatD0=    1 NMtDS0=    0 NMtDT0=    0
 Symmetry not used in FoFCou.
 Leave Link  703 at Sun Sep 13 22:09:31 2026, MaxMem=   805306368 cpu:               5.2 elap:               5.2
 (Enter /app1/ia32-64/Gaussian/Rev-C.02/g16/l716.exe)
 Dipole        =-3.16566542D-01 3.01145995D-01 5.66605762D-01
 ***** Axes restored to original set *****
 -------------------------------------------------------------------
 Center     Atomic                   Forces (Hartrees/Bohr)
 Number     Number              X              Y              Z
 -------------------------------------------------------------------
      1        6           0.000002974    0.000031630    0.000044360
      2        9           0.000005815   -0.000008750   -0.000056173
      3        8          -0.000043219   -0.000008868    0.000015689
      4        1           0.000005592   -0.000013894    0.000005166
      5        1           0.000002307    0.000009288   -0.000004819
      6        1           0.000026532   -0.000009405   -0.000004224
 -------------------------------------------------------------------
 Cartesian Forces:  Max     0.000056173 RMS     0.000023108
 Leave Link  716 at Sun Sep 13 22:09:32 2026, MaxMem=   805306368 cpu:               0.0 elap:               0.0
 (Enter /app1/ia32-64/Gaussian/Rev-C.02/g16/l103.exe)

 GradGradGradGradGradGradGradGradGradGradGradGradGradGradGradGradGradGrad
 Berny optimization.
 Using GEDIIS/GDIIS optimizer.
 FormGI is forming the generalized inverse of G from B-inverse, IUseBI=4.
 Internal  Forces:  Max     0.000056543 RMS     0.000020125
 Search for a local minimum.
 Step number   8 out of a maximum of   25
 All quantities printed in internal units (Hartrees-Bohrs-Radians)
 RMS Force = .20125D-04 SwitMx=.10000D-02 MixMth= 2
 Mixed Optimization -- En-DIIS/RFO-DIIS
 Swapping is turned off.
 Update second derivatives using D2CorX and points    1    2    3    4    5
                                                      6    7    8
 DE= -1.35D-07 DEPred=-1.11D-07 R= 1.22D+00
 Trust test= 1.22D+00 RLast= 1.67D-03 DXMaxT set to 4.56D-01
 The second derivative matrix:
                          R1        R2        R3        R4        R5
           R1           0.32186
           R2           0.09270   0.42245
           R3           0.00677  -0.00308   0.34846
           R4           0.00470  -0.00292  -0.00089   0.34956
           R5           0.00121  -0.00262  -0.00145   0.00235   0.56094
           A1           0.00816   0.02095  -0.00126  -0.00131  -0.00642
           A2           0.02362  -0.04242   0.00145   0.00000   0.00663
           A3           0.02485  -0.03503   0.00022  -0.00027   0.00494
           A4          -0.01840   0.02155   0.00090  -0.00123  -0.00646
           A5          -0.02223   0.01305  -0.00267   0.00512   0.00495
           A6          -0.00380   0.00726  -0.00183  -0.00059  -0.00276
           A7          -0.01064   0.00170  -0.00318   0.00613   0.01078
           D1           0.01410  -0.00893   0.00426  -0.00841  -0.01309
           D2          -0.00949  -0.01037   0.00040   0.00724   0.01992
           D3          -0.00399   0.01943  -0.00257   0.00145  -0.00233
                          A1        A2        A3        A4        A5
           A1           0.26969
           A2          -0.02744   0.15782
           A3          -0.01960   0.02046   0.16368
           A4           0.00232  -0.00525   0.00113   0.15741
           A5          -0.00450   0.01128  -0.00166  -0.00586   0.17475
           A6          -0.01400   0.02250   0.00789  -0.00612  -0.00141
           A7          -0.01049   0.01139   0.00863  -0.01302   0.01779
           D1           0.00524   0.01900  -0.01217   0.01776  -0.02978
           D2          -0.00907  -0.01560   0.01492  -0.01342   0.01523
           D3           0.00275  -0.00420   0.00071  -0.00277   0.01070
                          A6        A7        D1        D2        D3
           A6           0.15174
           A7          -0.00515   0.18565
           D1          -0.00340  -0.02915   0.03530
           D2           0.01032   0.02702  -0.02165   0.03056
           D3          -0.00637  -0.00252  -0.00775  -0.00361   0.01674
 ITU=  0  0  1  1  1  1  1  0
     Eigenvalues ---    0.00541   0.09519   0.12947   0.15409   0.15843
     Eigenvalues ---    0.20413   0.26369   0.30626   0.34963   0.35118
     Eigenvalues ---    0.48425   0.56282
 En-DIIS/RFO-DIIS/Sim-DIIS IScMMF=       -3 using points:     8    7    6    5    4
 RFO step:  Lambda=-1.78734420D-08.
 NNeg= 0 NGDIIS= 5 SimSw=  2.50D-01 Rises=F DC= -1.35D-07 SmlDif=  1.00D-05
 NRisDI= 0 DoIntr=F SqrtH=F CThrHd= 10.0 CDAdj=  3.0
 RMS Error=  0.8730271401D-04 NUsed= 5 OKEnD=F EnDIS=F
 InvSVX:  RCond= 1.50D-08 Info=           0 Equed=N FErr=  7.45D-14 BErr=  3.92D-17
 DIIS inversion failure, remove point   5.
 InvSVX:  RCond= 1.96D-08 Info=           0 Equed=N FErr=  2.98D-14 BErr=  1.06D-16
 DIIS inversion failure, remove point   4.
 InvSVX:  RCond= 6.24D-08 Info=           0 Equed=N FErr=  6.00D-15 BErr=  4.45D-17
 DIIS inversion failure, remove point   3.
 InvSVX:  RCond= 6.96D-07 Info=           0 Equed=N FErr=  1.22D-15 BErr=  1.35D-17
 RFO-DIIS uses    2 points instead of    5
 DidBck=F Rises=F RFO-DIIS coefs:    1.14355   -0.14355    0.00000    0.00000    0.00000
 Iteration  1 RMS(Cart)=  0.00008869 RMS(Int)=  0.00000001
 Iteration  2 RMS(Cart)=  0.00000001 RMS(Int)=  0.00000001
 ITry= 1 IFail=0 DXMaxC= 1.72D-04 DCOld= 1.00D+10 DXMaxT= 4.56D-01 DXLimC= 3.00D+00 Rises=F
 Variable       Old X    -DE/DX   Delta X   Delta X   Delta X     New X
                                 (Linear)    (Quad)   (Total)
    R1        2.63032  -0.00006  -0.00010  -0.00008  -0.00018   2.63015
    R2        2.60405  -0.00002   0.00004  -0.00005  -0.00000   2.60404
    R3        2.06626   0.00001   0.00000   0.00002   0.00003   2.06628
    R4        2.05691   0.00001   0.00000   0.00002   0.00002   2.05693
    R5        1.81983   0.00002   0.00001   0.00002   0.00003   1.81985
    A1        1.93982  -0.00000   0.00001   0.00000   0.00001   1.93983
    A2        1.85374  -0.00001   0.00002  -0.00004  -0.00002   1.85372
    A3        1.87964   0.00001   0.00005   0.00001   0.00006   1.87970
    A4        1.97105  -0.00001  -0.00004  -0.00001  -0.00006   1.97100
    A5        1.87271  -0.00000  -0.00005  -0.00001  -0.00007   1.87265
    A6        1.94572   0.00001   0.00002   0.00005   0.00008   1.94580
    A7        1.90791   0.00004  -0.00001   0.00020   0.00019   1.90810
    D1        1.23899  -0.00001   0.00010  -0.00004   0.00006   1.23905
    D2       -0.84235   0.00001   0.00010   0.00002   0.00011  -0.84224
    D3       -2.99341   0.00000   0.00013  -0.00003   0.00010  -2.99331
         Item               Value     Threshold  Converged?
 Maximum Force            0.000057     0.000015     NO 
 RMS     Force            0.000020     0.000010     NO 
 Maximum Displacement     0.000172     0.000060     NO 
 RMS     Displacement     0.000089     0.000040     NO 
 Predicted change in Energy=-1.064101D-08
 Lowest energy point so far.  Saving SCF results.
 GradGradGradGradGradGradGradGradGradGradGradGradGradGradGradGradGradGrad

 Leave Link  103 at Sun Sep 13 22:09:33 2026, MaxMem=   805306368 cpu:               0.0 elap:               0.5
 (Enter /app1/ia32-64/Gaussian/Rev-C.02/g16/l202.exe)
                          Input orientation:                          
 ---------------------------------------------------------------------
 Center     Atomic      Atomic             Coordinates (Angstroms)
 Number     Number       Type             X           Y           Z
 ---------------------------------------------------------------------
      1          6           0        0.017925   -0.008178    0.004640
      2          9           0       -0.086435    0.018828    1.392272
      3          8           0        1.335901    0.032350   -0.395589
      4          1           0       -0.499040   -0.914345   -0.322770
      5          1           0       -0.465073    0.887795   -0.381029
      6          1           0        1.758621   -0.807143   -0.185882
 ---------------------------------------------------------------------
                    Distance matrix (angstroms):
                    1          2          3          4          5
     1  C    0.000000
     2  F    1.391813   0.000000
     3  O    1.378001   2.284660   0.000000
     4  H    1.093430   1.995601   2.066044   0.000000
     5  H    1.088483   2.010737   1.993867   1.803402   0.000000
     6  H    1.924751   2.564572   0.963025   2.264346   2.802805
                    6
     6  H    0.000000
 Stoichiometry    CH3FO
 Framework group  C1[X(CH3FO)]
 Deg. of freedom    12
 Full point group                 C1      NOp   1
 RotChk:  IX=0 Diff= 9.95D-05
 Largest Abelian subgroup         C1      NOp   1
 Largest concise Abelian subgroup C1      NOp   1
                         Standard orientation:                         
 ---------------------------------------------------------------------
 Center     Atomic      Atomic             Coordinates (Angstroms)
 Number     Number       Type             X           Y           Z
 ---------------------------------------------------------------------
      1          6           0        0.014141    0.509888    0.046741
      2          9           0        1.136386   -0.310210   -0.025020
      3          8           0       -1.144432   -0.217407   -0.119493
      4          1           0        0.065600    1.013543    1.015902
      5          1           0        0.070704    1.220839   -0.775538
      6          1           0       -1.293166   -0.762568    0.660312
 ---------------------------------------------------------------------
 Rotational constants (GHZ):          45.8036900          10.2232730           9.0433890
 Leave Link  202 at Sun Sep 13 22:09:33 2026, MaxMem=   805306368 cpu:               0.0 elap:               0.0
 (Enter /app1/ia32-64/Gaussian/Rev-C.02/g16/l301.exe)
 Standard basis: CC-pVTZ (5D, 7F)
 Ernie: Thresh=  0.10000D-02 Tol=  0.10000D-05 Strict=F.
 Ernie:  9 primitive shells out of 102 were deleted.
 There are   150 symmetry adapted cartesian basis functions of A   symmetry.
 There are   132 symmetry adapted basis functions of A   symmetry.
   132 basis functions,   207 primitive gaussians,   150 cartesian basis functions
    13 alpha electrons       13 beta electrons
       nuclear repulsion energy        79.0075108787 Hartrees.
 IExCor=  402 DFT=T Ex+Corr=B3LYP ExCW=0 ScaHFX=  0.200000
 ScaDFX=  0.800000  0.720000  1.000000  0.810000 ScalE2=  1.000000  1.000000
 IRadAn=      5 IRanWt=     -1 IRanGd=            0 ICorTp=0 IEmpDi=  4
 NAtoms=    6 NActive=    6 NUniq=    6 SFac= 1.00D+00 NAtFMM=   60 NAOKFM=F Big=F
 Integral buffers will be    131072 words long.
 Raffenetti 2 integral format.
 Two-electron integral symmetry is turned on.
 Leave Link  301 at Sun Sep 13 22:09:33 2026, MaxMem=   805306368 cpu:               0.0 elap:               0.0
 (Enter /app1/ia32-64/Gaussian/Rev-C.02/g16/l302.exe)
 NPDir=0 NMtPBC=     1 NCelOv=     1 NCel=       1 NClECP=     1 NCelD=      1
         NCelK=      1 NCelE2=     1 NClLst=     1 CellRange=     0.0.
 One-electron integrals computed using PRISM.
 One-electron integral symmetry used in STVInt
 NBasis=   132 RedAO= T EigKep=  1.90D-03  NBF=   132
 NBsUse=   132 1.00D-06 EigRej= -1.00D+00 NBFU=   132
 Precomputing XC quadrature grid using
 IXCGrd= 4 IRadAn=           5 IRanWt=          -1 IRanGd=           0 AccXCQ= 0.00D+00.
 Generated NRdTot=       0 NPtTot=           0 NUsed=           0 NTot=          32
 NSgBfM=   150   150   150   150   150 MxSgAt=     6 MxSgA2=     6.
 Leave Link  302 at Sun Sep 13 22:09:33 2026, MaxMem=   805306368 cpu:               0.1 elap:               0.1
 (Enter /app1/ia32-64/Gaussian/Rev-C.02/g16/l303.exe)
 DipDrv:  MaxL=1.
 Leave Link  303 at Sun Sep 13 22:09:33 2026, MaxMem=   805306368 cpu:               0.0 elap:               0.1
 (Enter /app1/ia32-64/Gaussian/Rev-C.02/g16/l401.exe)
 Initial guess from the checkpoint file:  "ch2foh.chk"
 B after Tr=    -0.000000    0.000000   -0.000000
         Rot=    1.000000   -0.000018    0.000003    0.000017 Ang=  -0.00 deg.
 Guess basis will be translated and rotated to current coordinates.
 JPrj=2 DoOrth=T DoCkMO=T.
 Leave Link  401 at Sun Sep 13 22:09:34 2026, MaxMem=   805306368 cpu:               0.1 elap:               0.1
 (Enter /app1/ia32-64/Gaussian/Rev-C.02/g16/l502.exe)
 Keep R1 ints in memory in canonical form, NReq=40547587.
 FoFCou: FMM=F IPFlag=           0 FMFlag=           0 FMFlg1=           0
         NFxFlg=           0 DoJE=F BraDBF=F KetDBF=F FulRan=T
         wScrn=  0.000000 ICntrl=       600 IOpCl=  0 I1Cent=           0 NGrid=           0
         NMat0=    1 NMatS0=   8778 NMatT0=    0 NMatD0=    1 NMtDS0=    0 NMtDT0=    0
 Symmetry not used in FoFCou.
 Two-electron integral symmetry not used.
 Closed shell SCF:
 Using DIIS extrapolation, IDIIS=  1040.
 NGot=   805306368 LenX=   766727867 LenY=   766704926
 Requested convergence on RMS density matrix=1.00D-08 within 128 cycles.
 Requested convergence on MAX density matrix=1.00D-06.
 Requested convergence on             energy=1.00D-06.
 No special actions if energy rises.

 Cycle   1  Pass 1  IDiag  1:
 E= -215.057783772079    
 DIIS: error= 4.95D-06 at cycle   1 NSaved=   1.
 NSaved= 1 IEnMin= 1 EnMin= -215.057783772079     IErMin= 1 ErrMin= 4.95D-06
 ErrMax= 4.95D-06  0.00D+00 EMaxC= 1.00D-01 BMatC= 8.80D-09 BMatP= 8.80D-09
 IDIUse=1 WtCom= 1.00D+00 WtEn= 0.00D+00
 Coeff-Com:  0.100D+01
 Coeff:      0.100D+01
 Gap=     0.957 Goal=   None    Shift=    0.000
 RMSDP=6.53D-07 MaxDP=1.34D-05              OVMax= 2.75D-05

 Cycle   2  Pass 1  IDiag  1:
 E= -215.057783780201     Delta-E=       -0.000000008123 Rises=F Damp=F
 DIIS: error= 2.25D-06 at cycle   2 NSaved=   2.
 NSaved= 2 IEnMin= 2 EnMin= -215.057783780201     IErMin= 2 ErrMin= 2.25D-06
 ErrMax= 2.25D-06  0.00D+00 EMaxC= 1.00D-01 BMatC= 1.12D-09 BMatP= 8.80D-09
 IDIUse=1 WtCom= 1.00D+00 WtEn= 0.00D+00
 Coeff-Com:  0.149D+00 0.851D+00
 Coeff:      0.149D+00 0.851D+00
 Gap=     0.348 Goal=   None    Shift=    0.000
 RMSDP=2.49D-07 MaxDP=4.58D-06 DE=-8.12D-09 OVMax= 1.19D-05

 Cycle   3  Pass 1  IDiag  1:
 E= -215.057783779883     Delta-E=        0.000000000318 Rises=F Damp=F
 DIIS: error= 2.45D-06 at cycle   3 NSaved=   3.
 NSaved= 3 IEnMin= 2 EnMin= -215.057783780201     IErMin= 2 ErrMin= 2.25D-06
 ErrMax= 2.45D-06  0.00D+00 EMaxC= 1.00D-01 BMatC= 1.63D-09 BMatP= 1.12D-09
 IDIUse=1 WtCom= 1.00D+00 WtEn= 0.00D+00
 Coeff-Com: -0.198D-01 0.553D+00 0.467D+00
 Coeff:     -0.198D-01 0.553D+00 0.467D+00
 Gap=     0.348 Goal=   None    Shift=    0.000
 RMSDP=1.51D-07 MaxDP=2.52D-06 DE= 3.18D-10 OVMax= 6.80D-06

 Cycle   4  Pass 1  IDiag  1:
 E= -215.057783780834     Delta-E=       -0.000000000950 Rises=F Damp=F
 DIIS: error= 2.99D-07 at cycle   4 NSaved=   4.
 NSaved= 4 IEnMin= 4 EnMin= -215.057783780834     IErMin= 4 ErrMin= 2.99D-07
 ErrMax= 2.99D-07  0.00D+00 EMaxC= 1.00D-01 BMatC= 8.69D-12 BMatP= 1.12D-09
 IDIUse=1 WtCom= 1.00D+00 WtEn= 0.00D+00
 Coeff-Com: -0.885D-02 0.136D+00 0.153D+00 0.720D+00
 Coeff:     -0.885D-02 0.136D+00 0.153D+00 0.720D+00
 Gap=     0.348 Goal=   None    Shift=    0.000
 RMSDP=1.33D-08 MaxDP=2.48D-07 DE=-9.50D-10 OVMax= 5.56D-07

 Cycle   5  Pass 1  IDiag  1:
 E= -215.057783780839     Delta-E=       -0.000000000005 Rises=F Damp=F
 DIIS: error= 5.38D-08 at cycle   5 NSaved=   5.
 NSaved= 5 IEnMin= 5 EnMin= -215.057783780839     IErMin= 5 ErrMin= 5.38D-08
 ErrMax= 5.38D-08  0.00D+00 EMaxC= 1.00D-01 BMatC= 6.22D-13 BMatP= 8.69D-12
 IDIUse=1 WtCom= 1.00D+00 WtEn= 0.00D+00
 Coeff-Com: -0.221D-02 0.253D-01 0.393D-01 0.304D+00 0.634D+00
 Coeff:     -0.221D-02 0.253D-01 0.393D-01 0.304D+00 0.634D+00
 Gap=     0.348 Goal=   None    Shift=    0.000
 RMSDP=5.07D-09 MaxDP=1.07D-07 DE=-4.72D-12 OVMax= 1.81D-07

 SCF Done:  E(RB3LYP) =  -215.057783781     A.U. after    5 cycles
            NFock=  5  Conv=0.51D-08     -V/T= 2.0055
 KE= 2.138834623618D+02 PE=-6.668935175543D+02 EE= 1.589447605330D+02
 Leave Link  502 at Sun Sep 13 22:09:41 2026, MaxMem=   805306368 cpu:               5.3 elap:               6.9
 (Enter /app1/ia32-64/Gaussian/Rev-C.02/g16/l701.exe)
 ... and contract with generalized density number  0.
 Compute integral first derivatives.
 Leave Link  701 at Sun Sep 13 22:09:41 2026, MaxMem=   805306368 cpu:               0.1 elap:               0.2
 (Enter /app1/ia32-64/Gaussian/Rev-C.02/g16/l702.exe)
 L702 exits ... SP integral derivatives will be done elsewhere.
 Leave Link  702 at Sun Sep 13 22:09:41 2026, MaxMem=   805306368 cpu:               0.0 elap:               0.0
 (Enter /app1/ia32-64/Gaussian/Rev-C.02/g16/l703.exe)
 Integral derivatives from FoFJK, PRISM(SPDF).
 Compute integral first derivatives, UseDBF=F ICtDFT=           0.
 Calling FoFJK, ICntrl=      2127 FMM=F ISym2X=0 I1Cent= 0 IOpClX= 0 NMat=1 NMatS=1 NMatT=0.
 FoFJK:  IHMeth= 1 ICntrl=    2127 DoSepK=F KAlg= 0 I1Cent=           0 FoldK=F
 IRaf=         0 NMat=       1 IRICut=       1 DoRegI=T DoRafI=F ISym2E= 0 IDoP0=0 IntGTp=1.
 FoFCou: FMM=F IPFlag=           0 FMFlag=      100000 FMFlg1=         800
         NFxFlg=           0 DoJE=F BraDBF=F KetDBF=F FulRan=T
         wScrn=  0.000000 ICntrl=      2127 IOpCl=  0 I1Cent=           0 NGrid=           0
         NMat0=    1 NMatS0=      1 NMatT0=    0 NMatD0=    1 NMtDS0=    0 NMtDT0=    0
 Symmetry not used in FoFCou.
 Leave Link  703 at Sun Sep 13 22:09:48 2026, MaxMem=   805306368 cpu:               5.2 elap:               5.2
 (Enter /app1/ia32-64/Gaussian/Rev-C.02/g16/l716.exe)
 Dipole        =-3.16500159D-01 3.01024615D-01 5.66589665D-01
 ***** Axes restored to original set *****
 -------------------------------------------------------------------
 Center     Atomic                   Forces (Hartrees/Bohr)
 Number     Number              X              Y              Z
 -------------------------------------------------------------------
      1        6           0.000011082    0.000006348    0.000001083
      2        9           0.000001077   -0.000001715   -0.000003212
      3        8          -0.000014063   -0.000004325    0.000005793
      4        1           0.000001071   -0.000001677   -0.000000441
      5        1          -0.000001416    0.000000434   -0.000002503
      6        1           0.000002249    0.000000935   -0.000000720
 -------------------------------------------------------------------
 Cartesian Forces:  Max     0.000014063 RMS     0.000004988
 Leave Link  716 at Sun Sep 13 22:09:48 2026, MaxMem=   805306368 cpu:               0.0 elap:               0.0
 (Enter /app1/ia32-64/Gaussian/Rev-C.02/g16/l103.exe)

 GradGradGradGradGradGradGradGradGradGradGradGradGradGradGradGradGradGrad
 Berny optimization.
 Using GEDIIS/GDIIS optimizer.
 FormGI is forming the generalized inverse of G from B-inverse, IUseBI=4.
 Internal  Forces:  Max     0.000012948 RMS     0.000003903
 Search for a local minimum.
 Step number   9 out of a maximum of   25
 All quantities printed in internal units (Hartrees-Bohrs-Radians)
 RMS Force = .39033D-05 SwitMx=.10000D-02 MixMth= 2
 Mixed Optimization -- En-DIIS/RFO-DIIS
 Swapping is turned off.
 Update second derivatives using D2CorX and points    1    2    3    4    5
                                                      6    7    8    9
 DE= -1.16D-08 DEPred=-1.06D-08 R= 1.09D+00
 Trust test= 1.09D+00 RLast= 3.38D-04 DXMaxT set to 4.56D-01
 The second derivative matrix:
                          R1        R2        R3        R4        R5
           R1           0.31338
           R2           0.06575   0.39841
           R3           0.00870   0.00125   0.34810
           R4           0.00882   0.00282  -0.00159   0.34854
           R5          -0.00099   0.00987  -0.00184   0.00088   0.56272
           A1           0.00855   0.01853  -0.00129  -0.00097  -0.00557
           A2           0.03044  -0.04464   0.00103  -0.00016   0.00380
           A3           0.02804  -0.02831  -0.00031  -0.00167   0.00339
           A4          -0.02273   0.01497   0.00168   0.00009  -0.00511
           A5          -0.02285   0.01386  -0.00272   0.00524   0.00281
           A6          -0.00694   0.01336  -0.00174  -0.00146   0.00010
           A7          -0.00635   0.03135  -0.00529   0.00226   0.00784
           D1           0.00132  -0.01457   0.00598  -0.00669  -0.01030
           D2          -0.00246   0.00044  -0.00079   0.00559   0.01734
           D3           0.00227   0.01625  -0.00296   0.00136  -0.00269
                          A1        A2        A3        A4        A5
           A1           0.26916
           A2          -0.02777   0.15890
           A3          -0.02013   0.02137   0.16277
           A4           0.00181  -0.00485   0.00273   0.15588
           A5          -0.00398   0.01359  -0.00308  -0.00548   0.17458
           A6          -0.01361   0.01964   0.00778  -0.00563  -0.00381
           A7          -0.00815   0.00903   0.00292  -0.00864   0.01607
           D1           0.00365   0.02106  -0.00979   0.01552  -0.03087
           D2          -0.00793  -0.01650   0.01224  -0.01115   0.01535
           D3           0.00333  -0.00548   0.00036  -0.00235   0.01207
                          A6        A7        D1        D2        D3
           A6           0.15553
           A7          -0.00561   0.17262
           D1          -0.00189  -0.02163   0.03465
           D2           0.00874   0.01947  -0.01968   0.02770
           D3          -0.00720  -0.00221  -0.00810  -0.00310   0.01592
 ITU=  0  0  0  1  1  1  1  1  0
     Eigenvalues ---    0.00540   0.09214   0.13132   0.15019   0.15963
     Eigenvalues ---    0.19352   0.26616   0.31298   0.34870   0.35081
     Eigenvalues ---    0.44342   0.56445
 En-DIIS/RFO-DIIS/Sim-DIIS IScMMF=       -3 using points:     9    8    7    6    5    4
 RFO step:  Lambda=-6.33235836D-10.
 NNeg= 0 NGDIIS= 6 SimSw=  2.50D-01 Rises=F DC= -1.16D-08 SmlDif=  1.00D-05
 NRisDI= 0 DoIntr=F SqrtH=F CThrHd= 10.0 CDAdj=  3.0
 RMS Error=  0.1922955342D-04 NUsed= 6 OKEnD=F EnDIS=F
 InvSVX:  RCond= 9.75D-10 Info=           0 Equed=N FErr=  9.37D-14 BErr=  1.07D-16
 DIIS inversion failure, remove point   6.
 InvSVX:  RCond= 2.01D-09 Info=           0 Equed=N FErr=  2.57D-14 BErr=  9.44D-17
 DIIS inversion failure, remove point   5.
 InvSVX:  RCond= 2.66D-09 Info=           0 Equed=N FErr=  9.94D-15 BErr=  9.65D-17
 DIIS inversion failure, remove point   4.
 InvSVX:  RCond= 7.48D-09 Info=           0 Equed=N FErr=  2.11D-15 BErr=  5.28D-17
 DIIS inversion failure, remove point   3.
 InvSVX:  RCond= 2.86D-08 Info=           0 Equed=N FErr=  1.36D-15 BErr=  4.85D-17
 DIIS inversion failure, remove point   2.
 Use linear search instead of GDIIS.
 RFO step:  Lambda= 0.00000000D+00 EMin= 5.39974224D-03
 Quartic linear search produced a step of  0.09643.
 Iteration  1 RMS(Cart)=  0.00001527 RMS(Int)=  0.00000000
 Iteration  2 RMS(Cart)=  0.00000000 RMS(Int)=  0.00000000
 ITry= 1 IFail=0 DXMaxC= 2.62D-05 DCOld= 1.00D+10 DXMaxT= 4.56D-01 DXLimC= 3.00D+00 Rises=F
 Variable       Old X    -DE/DX   Delta X   Delta X   Delta X     New X
                                 (Linear)    (Quad)   (Total)
    R1        2.63015  -0.00000  -0.00002   0.00001  -0.00000   2.63014
    R2        2.60404  -0.00001  -0.00000  -0.00003  -0.00003   2.60401
    R3        2.06628   0.00000   0.00000   0.00000   0.00000   2.06629
    R4        2.05693   0.00000   0.00000   0.00000   0.00001   2.05694
    R5        1.81985   0.00000   0.00000  -0.00000  -0.00000   1.81985
    A1        1.93983  -0.00000   0.00000   0.00000   0.00000   1.93983
    A2        1.85372  -0.00000  -0.00000  -0.00001  -0.00001   1.85371
    A3        1.87970   0.00000   0.00001   0.00001   0.00002   1.87971
    A4        1.97100  -0.00000  -0.00001  -0.00001  -0.00001   1.97098
    A5        1.87265   0.00000  -0.00001   0.00001   0.00001   1.87265
    A6        1.94580   0.00000   0.00001  -0.00001  -0.00000   1.94580
    A7        1.90810   0.00000   0.00002   0.00001   0.00003   1.90813
    D1        1.23905  -0.00000   0.00001   0.00001   0.00001   1.23906
    D2       -0.84224   0.00000   0.00001   0.00002   0.00003  -0.84220
    D3       -2.99331   0.00000   0.00001   0.00003   0.00004  -2.99327
         Item               Value     Threshold  Converged?
 Maximum Force            0.000013     0.000015     YES
 RMS     Force            0.000004     0.000010     YES
 Maximum Displacement     0.000026     0.000060     YES
 RMS     Displacement     0.000015     0.000040     YES
 Predicted change in Energy=-3.783693D-10
 Optimization completed.
    -- Stationary point found.
                           ----------------------------
                           !   Optimized Parameters   !
                           ! (Angstroms and Degrees)  !
 --------------------------                            --------------------------
 ! Name  Definition              Value          Derivative Info.                !
 --------------------------------------------------------------------------------
 ! R1    R(1,2)                  1.3918         -DE/DX =    0.0                 !
 ! R2    R(1,3)                  1.378          -DE/DX =    0.0                 !
 ! R3    R(1,4)                  1.0934         -DE/DX =    0.0                 !
 ! R4    R(1,5)                  1.0885         -DE/DX =    0.0                 !
 ! R5    R(3,6)                  0.963          -DE/DX =    0.0                 !
 ! A1    A(2,1,3)              111.144          -DE/DX =    0.0                 !
 ! A2    A(2,1,4)              106.2103         -DE/DX =    0.0                 !
 ! A3    A(2,1,5)              107.6986         -DE/DX =    0.0                 !
 ! A4    A(3,1,4)              112.9297         -DE/DX =    0.0                 !
 ! A5    A(3,1,5)              107.2949         -DE/DX =    0.0                 !
 ! A6    A(4,1,5)              111.4863         -DE/DX =    0.0                 !
 ! A7    A(1,3,6)              109.3262         -DE/DX =    0.0                 !
 ! D1    D(2,1,3,6)             70.9921         -DE/DX =    0.0                 !
 ! D2    D(4,1,3,6)            -48.2567         -DE/DX =    0.0                 !
 ! D3    D(5,1,3,6)           -171.5039         -DE/DX =    0.0                 !
 --------------------------------------------------------------------------------
 Lowest energy point so far.  Saving SCF results.
 Largest change from initial coordinates is atom    6       0.173 Angstoms.
 GradGradGradGradGradGradGradGradGradGradGradGradGradGradGradGradGradGrad

 Leave Link  103 at Sun Sep 13 22:09:50 2026, MaxMem=   805306368 cpu:               0.0 elap:               1.6
 (Enter /app1/ia32-64/Gaussian/Rev-C.02/g16/l202.exe)
                          Input orientation:                          
 ---------------------------------------------------------------------
 Center     Atomic      Atomic             Coordinates (Angstroms)
 Number     Number       Type             X           Y           Z
 ---------------------------------------------------------------------
      1          6           0        0.017925   -0.008178    0.004640
      2          9           0       -0.086435    0.018828    1.392272
      3          8           0        1.335901    0.032350   -0.395589
      4          1           0       -0.499040   -0.914345   -0.322770
      5          1           0       -0.465073    0.887795   -0.381029
      6          1           0        1.758621   -0.807143   -0.185882
 ---------------------------------------------------------------------
                    Distance matrix (angstroms):
                    1          2          3          4          5
     1  C    0.000000
     2  F    1.391813   0.000000
     3  O    1.378001   2.284660   0.000000
     4  H    1.093430   1.995601   2.066044   0.000000
     5  H    1.088483   2.010737   1.993867   1.803402   0.000000
     6  H    1.924751   2.564572   0.963025   2.264346   2.802805
                    6
     6  H    0.000000
 Stoichiometry    CH3FO
 Framework group  C1[X(CH3FO)]
 Deg. of freedom    12
 Full point group                 C1      NOp   1
 RotChk:  IX=0 Diff= 6.68D-16
 Largest Abelian subgroup         C1      NOp   1
 Largest concise Abelian subgroup C1      NOp   1
                         Standard orientation:                         
 ---------------------------------------------------------------------
 Center     Atomic      Atomic             Coordinates (Angstroms)
 Number     Number       Type             X           Y           Z
 ---------------------------------------------------------------------
      1          6           0        0.014141    0.509888    0.046741
      2          9           0        1.136386   -0.310210   -0.025020
      3          8           0       -1.144432   -0.217407   -0.119493
      4          1           0        0.065600    1.013543    1.015902
      5          1           0        0.070704    1.220839   -0.775538
      6          1           0       -1.293166   -0.762568    0.660312
 ---------------------------------------------------------------------
 Rotational constants (GHZ):          45.8036900          10.2232730           9.0433890
 Leave Link  202 at Sun Sep 13 22:09:50 2026, MaxMem=   805306368 cpu:               0.0 elap:               0.0
 (Enter /app1/ia32-64/Gaussian/Rev-C.02/g16/l601.exe)
 Copying SCF densities to generalized density rwf, IOpCl= 0 IROHF=0.

 **********************************************************************

            Population analysis using the SCF Density.

 **********************************************************************

 Orbital symmetries:
       Occupied  (A) (A) (A) (A) (A) (A) (A) (A) (A) (A) (A) (A)
                 (A)
       Virtual   (A) (A) (A) (A) (A) (A) (A) (A) (A) (A) (A) (A)
                 (A) (A) (A) (A) (A) (A) (A) (A) (A) (A) (A) (A)
                 (A) (A) (A) (A) (A) (A) (A) (A) (A) (A) (A) (A)
                 (A) (A) (A) (A) (A) (A) (A) (A) (A) (A) (A) (A)
                 (A) (A) (A) (A) (A) (A) (A) (A) (A) (A) (A) (A)
                 (A) (A) (A) (A) (A) (A) (A) (A) (A) (A) (A) (A)
                 (A) (A) (A) (A) (A) (A) (A) (A) (A) (A) (A) (A)
                 (A) (A) (A) (A) (A) (A) (A) (A) (A) (A) (A) (A)
                 (A) (A) (A) (A) (A) (A) (A) (A) (A) (A) (A) (A)
                 (A) (A) (A) (A) (A) (A) (A) (A) (A) (A) (A)
 The electronic state is 1-A.
 Alpha  occ. eigenvalues --  -24.66588 -19.15652 -10.30144  -1.20022  -1.05537
 Alpha  occ. eigenvalues --   -0.69663  -0.56118  -0.51351  -0.50363  -0.41702
 Alpha  occ. eigenvalues --   -0.38158  -0.34842  -0.32354
 Alpha virt. eigenvalues --    0.02455   0.06425   0.09970   0.11248   0.18085
 Alpha virt. eigenvalues --    0.30621   0.31754   0.32986   0.36493   0.40849
 Alpha virt. eigenvalues --    0.43850   0.44984   0.50578   0.56787   0.60637
 Alpha virt. eigenvalues --    0.63485   0.69396   0.70773   0.74247   0.82374
 Alpha virt. eigenvalues --    0.88178   0.91182   0.99886   1.02843   1.04111
 Alpha virt. eigenvalues --    1.07034   1.09784   1.20119   1.21173   1.28561
 Alpha virt. eigenvalues --    1.30865   1.33497   1.43435   1.61100   1.74970
 Alpha virt. eigenvalues --    1.79898   1.82876   1.91928   2.02657   2.03250
 Alpha virt. eigenvalues --    2.14254   2.16816   2.23838   2.25334   2.34059
 Alpha virt. eigenvalues --    2.38782   2.47764   2.65000   2.71804   2.79766
 Alpha virt. eigenvalues --    2.87699   2.91532   2.93220   2.98573   3.00986
 Alpha virt. eigenvalues --    3.10514   3.12665   3.20412   3.26131   3.28195
 Alpha virt. eigenvalues --    3.32951   3.40241   3.43356   3.46421   3.47269
 Alpha virt. eigenvalues --    3.56597   3.64006   3.69957   3.74675   3.79681
 Alpha virt. eigenvalues --    3.87072   3.91488   3.97081   3.99674   4.04945
 Alpha virt. eigenvalues --    4.11035   4.15068   4.22664   4.42318   4.57723
 Alpha virt. eigenvalues --    4.62291   4.74415   4.77528   4.80879   4.88281
 Alpha virt. eigenvalues --    4.94906   4.99478   5.02618   5.12722   5.27694
 Alpha virt. eigenvalues --    5.50761   5.68633   5.73462   5.87140   5.90227
 Alpha virt. eigenvalues --    6.14485   6.43861   6.60510   6.65117   6.67316
 Alpha virt. eigenvalues --    6.75107   6.85311   6.89355   6.93267   7.03466
 Alpha virt. eigenvalues --    7.04445   7.06759   7.26712   7.29452   7.33837
 Alpha virt. eigenvalues --    7.41213   8.37610   8.38445   8.81395   8.83777
 Alpha virt. eigenvalues --    8.98911  11.00890  11.48244  12.42918
          Condensed to atoms (all electrons):
               1          2          3          4          5          6
     1  C    4.276341   0.338973   0.408153   0.389051   0.371284  -0.036714
     2  F    0.338973   9.065821  -0.059793  -0.055178  -0.046297   0.003519
     3  O    0.408153  -0.059793   7.716153  -0.054300  -0.038644   0.330177
     4  H    0.389051  -0.055178  -0.054300   0.804014  -0.091762  -0.019617
     5  H    0.371284  -0.046297  -0.038644  -0.091762   0.730604   0.013150
     6  H   -0.036714   0.003519   0.330177  -0.019617   0.013150   0.503067
 Mulliken charges:
               1
     1  C    0.252914
     2  F   -0.247045
     3  O   -0.301745
     4  H    0.027792
     5  H    0.061665
     6  H    0.206418
 Sum of Mulliken charges =  -0.00000
 Mulliken charges with hydrogens summed into heavy atoms:
               1
     1  C    0.342371
     2  F   -0.247045
     3  O   -0.095326
 Electronic spatial extent (au):  <R**2>=            152.2670
 Charge=             -0.0000 electrons
 Dipole moment (field-independent basis, Debye):
    X=             -0.8045    Y=              0.7651    Z=              1.4401  Tot=              1.8184
 Quadrupole moment (field-independent basis, Debye-Ang):
   XX=            -19.8907   YY=            -15.7831   ZZ=            -15.9623
   XY=              1.7101   XZ=             -1.9420   YZ=             -1.3679
 Traceless Quadrupole moment (field-independent basis, Debye-Ang):
   XX=             -2.6787   YY=              1.4290   ZZ=              1.2497
   XY=              1.7101   XZ=             -1.9420   YZ=             -1.3679
 Octapole moment (field-independent basis, Debye-Ang**2):
  XXX=              2.4466  YYY=             -3.1666  ZZZ=              0.7893  XYY=             -0.1242
  XXY=             -2.6545  XXZ=              2.5863  XZZ=              0.1940  YZZ=             -0.8504
  YYZ=              0.6566  XYZ=              1.5879
 Hexadecapole moment (field-independent basis, Debye-Ang**3):
 XXXX=           -103.6182 YYYY=            -37.6045 ZZZZ=            -21.7598 XXXY=              2.3532
 XXXZ=             -4.1410 YYYX=              0.3267 YYYZ=             -1.8074 ZZZX=             -1.6264
 ZZZY=             -1.1930 XXYY=            -21.3606 XXZZ=            -19.6173 YYZZ=             -8.8083
 XXYZ=             -2.1739 YYXZ=             -1.4172 ZZXY=              0.6656
 N-N= 7.900751087866D+01 E-N=-6.668935070767D+02  KE= 2.138834623618D+02
 No NMR shielding tensors so no spin-rotation constants.
 Leave Link  601 at Sun Sep 13 22:09:50 2026, MaxMem=   805306368 cpu:               0.1 elap:               0.1
 (Enter /app1/ia32-64/Gaussian/Rev-C.02/g16/l9999.exe)
 Unable to Open any file for archive entry.
 1\1\GINC-CNODE-33-43-49\FOpt\RB3LYP\CC-pVTZ\C1H3F1O1\ZHANGXUBO\13-Sep-
 2026\0\\#p b3lyp/cc-pVTZ opt=tight freq int=ultrafine\\CFH2-OH (fluoro
 methanol) ground-state opt+freq / B3LYP/cc-pVTZ\\0,1\C,0.0179248405,-0
 .008177598,0.0046396175\F,-0.0864350264,0.0188280577,1.3922717302\O,1.
 3359007369,0.0323495411,-0.3955894251\H,-0.4990395904,-0.9143453299,-0
 .32277035\H,-0.465073257,0.8877950102,-0.3810287388\H,1.7586209671,-0.
 8071432205,-0.1858820945\\Version=ES64L-G16RevC.02\State=1-A\HF=-215.0
 577838\RMSD=5.074e-09\RMSF=4.988e-06\Dipole=-0.0819826,-0.542782,-0.45
 87795\Quadrupole=0.6472459,1.2692699,-1.9165158,-1.7369602,1.294187,0.
 4136648\PG=C01 [X(C1H3F1O1)]\\@
 The archive entry for this job was punched.


 FLOATING POINT NUMBERS ARE LIKE SANDPILES:
 EVERY TIME THAT YOU MOVE ONE, YOU LOSE A LITTLE SAND 
 AND YOU PICK UP A LITTLE DIRT.
 Leave Link 9999 at Sun Sep 13 22:09:50 2026, MaxMem=   805306368 cpu:               0.0 elap:               0.1
 Job cpu time:       0 days  0 hours  1 minutes 57.8 seconds.
 Elapsed time:       0 days  0 hours  2 minutes 30.3 seconds.
 File lengths (MBytes):  RWF=     15 Int=      0 D2E=      0 Chk=      3 Scr=      1
 Normal termination of Gaussian 16 at Sun Sep 13 22:09:51 2026.
 (Enter /app1/ia32-64/Gaussian/Rev-C.02/g16/l1.exe)
 Link1:  Proceeding to internal job step number  2.
 -------------------------------------------------------------------
 #P Geom=AllCheck Guess=TCheck SCRF=Check GenChk RB3LYP/CC-pVTZ Freq
 -------------------------------------------------------------------
 1/7=10,10=4,29=7,30=1,38=1,40=1/1,3;
 2/12=2,40=1/2;
 3/5=16,6=1,11=2,14=-4,25=1,30=1,70=2,71=2,74=-5,75=-5,116=1,140=1/1,2,3;
 4/5=101/1;
 5/5=2,38=6,98=1/2;
 8/6=4,10=90,11=11/1;
 11/6=1,8=1,9=11,15=111,16=1/1,2,10;
 10/6=1/2;
 6/7=2,8=2,9=2,10=2,28=1/1;
 7/8=1,10=1,25=1/1,2,3,16;
 1/7=10,10=4,30=1/3;
 99//99;
 Leave Link    1 at Sun Sep 13 22:09:51 2026, MaxMem=   805306368 cpu:               0.0 elap:               0.0
 (Enter /app1/ia32-64/Gaussian/Rev-C.02/g16/l101.exe)
 Structure from the checkpoint file:  "ch2foh.chk"
 --------------------------------------------------------------
 CFH2-OH (fluoromethanol) ground-state opt+freq / B3LYP/cc-pVTZ
 --------------------------------------------------------------
 Charge =  0 Multiplicity = 1
 Redundant internal coordinates found in file.  (old form).
 C,0,0.0179248405,-0.008177598,0.0046396175
 F,0,-0.0864350264,0.0188280577,1.3922717302
 O,0,1.3359007369,0.0323495411,-0.3955894251
 H,0,-0.4990395904,-0.9143453299,-0.32277035
 H,0,-0.465073257,0.8877950102,-0.3810287388
 H,0,1.7586209671,-0.8071432205,-0.1858820945
 Recover connectivity data from disk.
 ITRead=  0  0  0  0  0  0
 MicOpt= -1 -1 -1 -1 -1 -1
 NAtoms=      6 NQM=        6 NQMF=       0 NMMI=      0 NMMIF=      0
                NMic=       0 NMicF=      0.
                    Isotopes and Nuclear Properties:
 (Nuclear quadrupole moments (NQMom) in fm**2, nuclear magnetic moments (NMagM)
  in nuclear magnetons)

  Atom         1           2           3           4           5           6
 IAtWgt=          12          19          16           1           1           1
 AtmWgt=  12.0000000  18.9984032  15.9949146   1.0078250   1.0078250   1.0078250
 NucSpn=           0           1           0           1           1           1
 AtZEff=   3.6000000   6.7500000   5.6000000   1.0000000   1.0000000   1.0000000
 NQMom=    0.0000000   0.0000000   0.0000000   0.0000000   0.0000000   0.0000000
 NMagM=    0.0000000   2.6288670   0.0000000   2.7928460   2.7928460   2.7928460
 AtZNuc=   6.0000000   9.0000000   8.0000000   1.0000000   1.0000000   1.0000000
 Leave Link  101 at Sun Sep 13 22:09:51 2026, MaxMem=   805306368 cpu:               0.2 elap:               0.2
 (Enter /app1/ia32-64/Gaussian/Rev-C.02/g16/l103.exe)

 GradGradGradGradGradGradGradGradGradGradGradGradGradGradGradGradGradGrad
 Berny optimization.
 Initialization pass.
                           ----------------------------
                           !    Initial Parameters    !
                           ! (Angstroms and Degrees)  !
 --------------------------                            --------------------------
 ! Name  Definition              Value          Derivative Info.                !
 --------------------------------------------------------------------------------
 ! R1    R(1,2)                  1.3918         calculate D2E/DX2 analytically  !
 ! R2    R(1,3)                  1.378          calculate D2E/DX2 analytically  !
 ! R3    R(1,4)                  1.0934         calculate D2E/DX2 analytically  !
 ! R4    R(1,5)                  1.0885         calculate D2E/DX2 analytically  !
 ! R5    R(3,6)                  0.963          calculate D2E/DX2 analytically  !
 ! A1    A(2,1,3)              111.144          calculate D2E/DX2 analytically  !
 ! A2    A(2,1,4)              106.2103         calculate D2E/DX2 analytically  !
 ! A3    A(2,1,5)              107.6986         calculate D2E/DX2 analytically  !
 ! A4    A(3,1,4)              112.9297         calculate D2E/DX2 analytically  !
 ! A5    A(3,1,5)              107.2949         calculate D2E/DX2 analytically  !
 ! A6    A(4,1,5)              111.4863         calculate D2E/DX2 analytically  !
 ! A7    A(1,3,6)              109.3262         calculate D2E/DX2 analytically  !
 ! D1    D(2,1,3,6)             70.9921         calculate D2E/DX2 analytically  !
 ! D2    D(4,1,3,6)            -48.2567         calculate D2E/DX2 analytically  !
 ! D3    D(5,1,3,6)           -171.5039         calculate D2E/DX2 analytically  !
 --------------------------------------------------------------------------------
 Trust Radius=3.00D-01 FncErr=1.00D-07 GrdErr=1.00D-07 EigMax=2.50D+02 EigMin=1.00D-04
 Number of steps in this run=      2 maximum allowed number of steps=      2.
 GradGradGradGradGradGradGradGradGradGradGradGradGradGradGradGradGradGrad

 Leave Link  103 at Sun Sep 13 22:09:51 2026, MaxMem=   805306368 cpu:               0.0 elap:               0.0
 (Enter /app1/ia32-64/Gaussian/Rev-C.02/g16/l202.exe)
                          Input orientation:                          
 ---------------------------------------------------------------------
 Center     Atomic      Atomic             Coordinates (Angstroms)
 Number     Number       Type             X           Y           Z
 ---------------------------------------------------------------------
      1          6           0        0.017925   -0.008178    0.004640
      2          9           0       -0.086435    0.018828    1.392272
      3          8           0        1.335901    0.032350   -0.395589
      4          1           0       -0.499040   -0.914345   -0.322770
      5          1           0       -0.465073    0.887795   -0.381029
      6          1           0        1.758621   -0.807143   -0.185882
 ---------------------------------------------------------------------
                    Distance matrix (angstroms):
                    1          2          3          4          5
     1  C    0.000000
     2  F    1.391813   0.000000
     3  O    1.378001   2.284660   0.000000
     4  H    1.093430   1.995601   2.066044   0.000000
     5  H    1.088483   2.010737   1.993867   1.803402   0.000000
     6  H    1.924751   2.564572   0.963025   2.264346   2.802805
                    6
     6  H    0.000000
 Stoichiometry    CH3FO
 Framework group  C1[X(CH3FO)]
 Deg. of freedom    12
 Full point group                 C1      NOp   1
 RotChk:  IX=0 Diff= 1.82D-15
 Largest Abelian subgroup         C1      NOp   1
 Largest concise Abelian subgroup C1      NOp   1
                         Standard orientation:                         
 ---------------------------------------------------------------------
 Center     Atomic      Atomic             Coordinates (Angstroms)
 Number     Number       Type             X           Y           Z
 ---------------------------------------------------------------------
      1          6           0        0.014141    0.509888    0.046741
      2          9           0        1.136386   -0.310210   -0.025020
      3          8           0       -1.144432   -0.217407   -0.119493
      4          1           0        0.065600    1.013543    1.015902
      5          1           0        0.070704    1.220839   -0.775538
      6          1           0       -1.293166   -0.762568    0.660312
 ---------------------------------------------------------------------
 Rotational constants (GHZ):          45.8036900          10.2232730           9.0433890
 Leave Link  202 at Sun Sep 13 22:09:51 2026, MaxMem=   805306368 cpu:               0.0 elap:               0.1
 (Enter /app1/ia32-64/Gaussian/Rev-C.02/g16/l301.exe)
 Standard basis: CC-pVTZ (5D, 7F)
 Ernie: Thresh=  0.10000D-02 Tol=  0.10000D-05 Strict=F.
 Ernie:  9 primitive shells out of 102 were deleted.
 There are   150 symmetry adapted cartesian basis functions of A   symmetry.
 There are   132 symmetry adapted basis functions of A   symmetry.
   132 basis functions,   207 primitive gaussians,   150 cartesian basis functions
    13 alpha electrons       13 beta electrons
       nuclear repulsion energy        79.0075108787 Hartrees.
 IExCor=  402 DFT=T Ex+Corr=B3LYP ExCW=0 ScaHFX=  0.200000
 ScaDFX=  0.800000  0.720000  1.000000  0.810000 ScalE2=  1.000000  1.000000
 IRadAn=      5 IRanWt=     -1 IRanGd=            0 ICorTp=0 IEmpDi=  4
 NAtoms=    6 NActive=    6 NUniq=    6 SFac= 1.00D+00 NAtFMM=   60 NAOKFM=F Big=F
 Integral buffers will be    131072 words long.
 Raffenetti 2 integral format.
 Two-electron integral symmetry is turned on.
 Leave Link  301 at Sun Sep 13 22:09:52 2026, MaxMem=   805306368 cpu:               0.0 elap:               0.0
 (Enter /app1/ia32-64/Gaussian/Rev-C.02/g16/l302.exe)
 NPDir=0 NMtPBC=     1 NCelOv=     1 NCel=       1 NClECP=     1 NCelD=      1
         NCelK=      1 NCelE2=     1 NClLst=     1 CellRange=     0.0.
 One-electron integrals computed using PRISM.
 One-electron integral symmetry used in STVInt
 NBasis=   132 RedAO= T EigKep=  1.90D-03  NBF=   132
 NBsUse=   132 1.00D-06 EigRej= -1.00D+00 NBFU=   132
 Precomputing XC quadrature grid using
 IXCGrd= 4 IRadAn=           5 IRanWt=          -1 IRanGd=           0 AccXCQ= 0.00D+00.
 Generated NRdTot=       0 NPtTot=           0 NUsed=           0 NTot=          32
 NSgBfM=   150   150   150   150   150 MxSgAt=     6 MxSgA2=     6.
 Leave Link  302 at Sun Sep 13 22:09:52 2026, MaxMem=   805306368 cpu:               0.1 elap:               0.1
 (Enter /app1/ia32-64/Gaussian/Rev-C.02/g16/l303.exe)
 DipDrv:  MaxL=1.
 Leave Link  303 at Sun Sep 13 22:09:52 2026, MaxMem=   805306368 cpu:               0.0 elap:               0.1
 (Enter /app1/ia32-64/Gaussian/Rev-C.02/g16/l401.exe)
 Initial guess from the checkpoint file:  "ch2foh.chk"
 B after Tr=    -0.000000   -0.000000   -0.000000
         Rot=    1.000000    0.000000    0.000000   -0.000000 Ang=   0.00 deg.
 Guess basis will be translated and rotated to current coordinates.
 JPrj=2 DoOrth=T DoCkMO=T.
 Leave Link  401 at Sun Sep 13 22:09:52 2026, MaxMem=   805306368 cpu:               0.1 elap:               0.1
 (Enter /app1/ia32-64/Gaussian/Rev-C.02/g16/l502.exe)
 Keep R1 ints in memory in canonical form, NReq=40547587.
 FoFCou: FMM=F IPFlag=           0 FMFlag=           0 FMFlg1=           0
         NFxFlg=           0 DoJE=F BraDBF=F KetDBF=F FulRan=T
         wScrn=  0.000000 ICntrl=       600 IOpCl=  0 I1Cent=           0 NGrid=           0
         NMat0=    1 NMatS0=   8778 NMatT0=    0 NMatD0=    1 NMtDS0=    0 NMtDT0=    0
 Symmetry not used in FoFCou.
 Two-electron integral symmetry not used.
 Closed shell SCF:
 Using DIIS extrapolation, IDIIS=  1040.
 NGot=   805306368 LenX=   766727867 LenY=   766704926
 Requested convergence on RMS density matrix=1.00D-08 within 128 cycles.
 Requested convergence on MAX density matrix=1.00D-06.
 Requested convergence on             energy=1.00D-06.
 No special actions if energy rises.

 Cycle   1  Pass 1  IDiag  1:
 E= -215.057783780839    
 DIIS: error= 1.51D-08 at cycle   1 NSaved=   1.
 NSaved= 1 IEnMin= 1 EnMin= -215.057783780839     IErMin= 1 ErrMin= 1.51D-08
 ErrMax= 1.51D-08  0.00D+00 EMaxC= 1.00D-01 BMatC= 3.89D-14 BMatP= 3.89D-14
 IDIUse=1 WtCom= 1.00D+00 WtEn= 0.00D+00
 Coeff-Com:  0.100D+01
 Coeff:      0.100D+01
 Gap=     0.348 Goal=   None    Shift=    0.000
 RMSDP=2.01D-09 MaxDP=3.49D-08              OVMax= 7.51D-08

 SCF Done:  E(RB3LYP) =  -215.057783781     A.U. after    1 cycles
            NFock=  1  Conv=0.20D-08     -V/T= 2.0055
 KE= 2.138834664254D+02 PE=-6.668935111403D+02 EE= 1.589447500554D+02
 Leave Link  502 at Sun Sep 13 22:09:57 2026, MaxMem=   805306368 cpu:               2.1 elap:               4.7
 (Enter /app1/ia32-64/Gaussian/Rev-C.02/g16/l801.exe)
 DoSCS=F DFT=T ScalE2(SS,OS)=  1.000000  1.000000
 Range of M.O.s used for correlation:     1   132
 NBasis=   132 NAE=    13 NBE=    13 NFC=     0 NFV=     0
 NROrb=    132 NOA=    13 NOB=    13 NVA=   119 NVB=   119
 Leave Link  801 at Sun Sep 13 22:09:57 2026, MaxMem=   805306368 cpu:               0.0 elap:               0.1
 (Enter /app1/ia32-64/Gaussian/Rev-C.02/g16/l1101.exe)
 Using compressed storage, NAtomX=     6.
 Will process      7 centers per pass.
 Leave Link 1101 at Sun Sep 13 22:09:58 2026, MaxMem=   805306368 cpu:               0.1 elap:               0.1
 (Enter /app1/ia32-64/Gaussian/Rev-C.02/g16/l1102.exe)
 Symmetrizing basis deriv contribution to polar:
 IMax=3 JMax=2 DiffMx= 0.00D+00
 Leave Link 1102 at Sun Sep 13 22:09:58 2026, MaxMem=   805306368 cpu:               0.0 elap:               0.0
 (Enter /app1/ia32-64/Gaussian/Rev-C.02/g16/l1110.exe)
 Forming Gx(P) for the SCF density, NAtomX=     6.
 Integral derivatives from FoFJK, PRISM(SPDF).
 Do as many integral derivatives as possible in FoFJK.
 G2DrvN: MDV=     805305614.
 G2DrvN: will do     7 centers at a time, making    1 passes.
 Calling FoFCou, ICntrl=  3107 FMM=F I1Cent=   0 AccDes= 0.00D+00.
 FoFJK:  IHMeth= 1 ICntrl=    3107 DoSepK=F KAlg= 0 I1Cent=           0 FoldK=F
 IRaf=         0 NMat=       1 IRICut=       1 DoRegI=T DoRafI=F ISym2E= 0 IDoP0=0 IntGTp=1.
 FoFCou: FMM=F IPFlag=           0 FMFlag=      100000 FMFlg1=           0
         NFxFlg=           0 DoJE=F BraDBF=F KetDBF=F FulRan=T
         wScrn=  0.000000 ICntrl=      3107 IOpCl=  0 I1Cent=           0 NGrid=           0
         NMat0=    1 NMatS0=      1 NMatT0=    0 NMatD0=    1 NMtDS0=    0 NMtDT0=    0
 Symmetry not used in FoFCou.
 End of G2Drv F.D. properties file   721 does not exist.
 End of G2Drv F.D. properties file   722 does not exist.
 End of G2Drv F.D. properties file   788 does not exist.
 Leave Link 1110 at Sun Sep 13 22:10:15 2026, MaxMem=   805306368 cpu:              17.1 elap:              17.1
 (Enter /app1/ia32-64/Gaussian/Rev-C.02/g16/l1002.exe)
 Minotr:  Closed shell wavefunction.
          IDoAtm=111111
          Direct CPHF calculation.
          Differentiating once with respect to electric field.
                with respect to dipole field.
          Differentiating once with respect to nuclear coordinates.
          Requested convergence is 1.0D-08 RMS, and 1.0D-07 maximum.
          Secondary convergence is 1.0D-12 RMS, and 1.0D-12 maximum.
          NewPWx=T KeepS1=F KeepF1=F KeepIn=T MapXYZ=F SortEE=F KeepMc=T.
         1789 words used for storage of precomputed grid.
 Keep R1 ints in memory in canonical form, NReq=40549878.
 FoFCou: FMM=F IPFlag=           0 FMFlag=           0 FMFlg1=           0
         NFxFlg=           0 DoJE=F BraDBF=F KetDBF=F FulRan=T
         wScrn=  0.000000 ICntrl=       600 IOpCl=  0 I1Cent=           0 NGrid=           0
         NMat0=    1 NMatS0=   8778 NMatT0=    0 NMatD0=    1 NMtDS0=    0 NMtDT0=    0
 Symmetry not used in FoFCou.
 Two-electron integral symmetry not used.
          MDV=     805306368 using IRadAn=       1.
          Solving linear equations simultaneously, MaxMat=       0.
          There are    21 degrees of freedom in the 1st order CPHF.  IDoFFX=6 NUNeed=     3.
     18 vectors produced by pass  0 Test12= 7.37D-15 4.76D-09 XBig12= 9.90D+00 1.10D+00.
 AX will form    18 AO Fock derivatives at one time.
     18 vectors produced by pass  1 Test12= 7.37D-15 4.76D-09 XBig12= 1.56D+00 2.48D-01.
     18 vectors produced by pass  2 Test12= 7.37D-15 4.76D-09 XBig12= 6.62D-03 1.73D-02.
     18 vectors produced by pass  3 Test12= 7.37D-15 4.76D-09 XBig12= 2.41D-05 1.02D-03.
     18 vectors produced by pass  4 Test12= 7.37D-15 4.76D-09 XBig12= 5.36D-08 4.45D-05.
     13 vectors produced by pass  5 Test12= 7.37D-15 4.76D-09 XBig12= 8.04D-11 1.48D-06.
      4 vectors produced by pass  6 Test12= 7.37D-15 4.76D-09 XBig12= 1.15D-13 5.15D-08.
 InvSVY:  IOpt=1 It=  1 EMax= 2.66D-15
 Solved reduced A of dimension   107 with    21 vectors.
 FullF1:  Do perturbations      1 to       3.
 Isotropic polarizability for W=    0.000000       18.75 Bohr**3.
 End of Minotr F.D. properties file   721 does not exist.
 End of Minotr F.D. properties file   722 does not exist.
 End of Minotr F.D. properties file   788 does not exist.
 Leave Link 1002 at Sun Sep 13 22:10:32 2026, MaxMem=   805306368 cpu:              16.7 elap:              16.7
 (Enter /app1/ia32-64/Gaussian/Rev-C.02/g16/l601.exe)
 Copying SCF densities to generalized density rwf, IOpCl= 0 IROHF=0.

 **********************************************************************

            Population analysis using the SCF Density.

 **********************************************************************

 Orbital symmetries:
       Occupied  (A) (A) (A) (A) (A) (A) (A) (A) (A) (A) (A) (A)
                 (A)
       Virtual   (A) (A) (A) (A) (A) (A) (A) (A) (A) (A) (A) (A)
                 (A) (A) (A) (A) (A) (A) (A) (A) (A) (A) (A) (A)
                 (A) (A) (A) (A) (A) (A) (A) (A) (A) (A) (A) (A)
                 (A) (A) (A) (A) (A) (A) (A) (A) (A) (A) (A) (A)
                 (A) (A) (A) (A) (A) (A) (A) (A) (A) (A) (A) (A)
                 (A) (A) (A) (A) (A) (A) (A) (A) (A) (A) (A) (A)
                 (A) (A) (A) (A) (A) (A) (A) (A) (A) (A) (A) (A)
                 (A) (A) (A) (A) (A) (A) (A) (A) (A) (A) (A) (A)
                 (A) (A) (A) (A) (A) (A) (A) (A) (A) (A) (A) (A)
                 (A) (A) (A) (A) (A) (A) (A) (A) (A) (A) (A)
 The electronic state is 1-A.
 Alpha  occ. eigenvalues --  -24.66588 -19.15652 -10.30144  -1.20022  -1.05537
 Alpha  occ. eigenvalues --   -0.69663  -0.56118  -0.51351  -0.50363  -0.41702
 Alpha  occ. eigenvalues --   -0.38158  -0.34842  -0.32354
 Alpha virt. eigenvalues --    0.02455   0.06425   0.09970   0.11248   0.18085
 Alpha virt. eigenvalues --    0.30621   0.31754   0.32986   0.36493   0.40849
 Alpha virt. eigenvalues --    0.43850   0.44984   0.50578   0.56787   0.60637
 Alpha virt. eigenvalues --    0.63485   0.69396   0.70773   0.74247   0.82374
 Alpha virt. eigenvalues --    0.88178   0.91182   0.99886   1.02843   1.04111
 Alpha virt. eigenvalues --    1.07034   1.09784   1.20119   1.21173   1.28561
 Alpha virt. eigenvalues --    1.30865   1.33497   1.43435   1.61100   1.74970
 Alpha virt. eigenvalues --    1.79898   1.82876   1.91928   2.02657   2.03250
 Alpha virt. eigenvalues --    2.14254   2.16816   2.23838   2.25334   2.34059
 Alpha virt. eigenvalues --    2.38782   2.47764   2.65000   2.71804   2.79766
 Alpha virt. eigenvalues --    2.87699   2.91532   2.93220   2.98573   3.00986
 Alpha virt. eigenvalues --    3.10514   3.12665   3.20412   3.26131   3.28195
 Alpha virt. eigenvalues --    3.32951   3.40241   3.43356   3.46421   3.47269
 Alpha virt. eigenvalues --    3.56597   3.64006   3.69957   3.74675   3.79681
 Alpha virt. eigenvalues --    3.87072   3.91488   3.97081   3.99674   4.04945
 Alpha virt. eigenvalues --    4.11035   4.15068   4.22664   4.42318   4.57723
 Alpha virt. eigenvalues --    4.62291   4.74415   4.77528   4.80879   4.88281
 Alpha virt. eigenvalues --    4.94906   4.99478   5.02618   5.12722   5.27694
 Alpha virt. eigenvalues --    5.50761   5.68633   5.73462   5.87140   5.90227
 Alpha virt. eigenvalues --    6.14485   6.43861   6.60510   6.65117   6.67316
 Alpha virt. eigenvalues --    6.75107   6.85311   6.89355   6.93267   7.03466
 Alpha virt. eigenvalues --    7.04445   7.06759   7.26712   7.29452   7.33837
 Alpha virt. eigenvalues --    7.41212   8.37610   8.38445   8.81395   8.83777
 Alpha virt. eigenvalues --    8.98911  11.00890  11.48244  12.42918
          Condensed to atoms (all electrons):
               1          2          3          4          5          6
     1  C    4.276341   0.338973   0.408152   0.389051   0.371284  -0.036714
     2  F    0.338973   9.065821  -0.059793  -0.055178  -0.046297   0.003519
     3  O    0.408152  -0.059793   7.716153  -0.054300  -0.038644   0.330177
     4  H    0.389051  -0.055178  -0.054300   0.804014  -0.091762  -0.019617
     5  H    0.371284  -0.046297  -0.038644  -0.091762   0.730604   0.013150
     6  H   -0.036714   0.003519   0.330177  -0.019617   0.013150   0.503066
 Mulliken charges:
               1
     1  C    0.252914
     2  F   -0.247045
     3  O   -0.301745
     4  H    0.027793
     5  H    0.061665
     6  H    0.206419
 Sum of Mulliken charges =  -0.00000
 Mulliken charges with hydrogens summed into heavy atoms:
               1
     1  C    0.342371
     2  F   -0.247045
     3  O   -0.095326
 APT charges:
               1
     1  C    1.020116
     2  F   -0.561595
     3  O   -0.627233
     4  H   -0.069175
     5  H   -0.030532
     6  H    0.268419
 Sum of APT charges =  -0.00000
 APT charges with hydrogens summed into heavy atoms:
               1
     1  C    0.920409
     2  F   -0.561595
     3  O   -0.358813
 Electronic spatial extent (au):  <R**2>=            152.2670
 Charge=             -0.0000 electrons
 Dipole moment (field-independent basis, Debye):
    X=             -0.8045    Y=              0.7651    Z=              1.4401  Tot=              1.8184
 Quadrupole moment (field-independent basis, Debye-Ang):
   XX=            -19.8907   YY=            -15.7831   ZZ=            -15.9623
   XY=              1.7101   XZ=             -1.9420   YZ=             -1.3679
 Traceless Quadrupole moment (field-independent basis, Debye-Ang):
   XX=             -2.6787   YY=              1.4290   ZZ=              1.2497
   XY=              1.7101   XZ=             -1.9420   YZ=             -1.3679
 Octapole moment (field-independent basis, Debye-Ang**2):
  XXX=              2.4466  YYY=             -3.1666  ZZZ=              0.7893  XYY=             -0.1242
  XXY=             -2.6545  XXZ=              2.5863  XZZ=              0.1940  YZZ=             -0.8504
  YYZ=              0.6566  XYZ=              1.5879
 Hexadecapole moment (field-independent basis, Debye-Ang**3):
 XXXX=           -103.6182 YYYY=            -37.6045 ZZZZ=            -21.7598 XXXY=              2.3532
 XXXZ=             -4.1410 YYYX=              0.3267 YYYZ=             -1.8074 ZZZX=             -1.6264
 ZZZY=             -1.1930 XXYY=            -21.3606 XXZZ=            -19.6173 YYZZ=             -8.8083
 XXYZ=             -2.1739 YYXZ=             -1.4172 ZZXY=              0.6656
 N-N= 7.900751087866D+01 E-N=-6.668935154621D+02  KE= 2.138834664254D+02
  Exact polarizability:      19.806       1.206      18.656      -0.348      -0.800      17.784
 Approx polarizability:      25.940       0.852      23.766      -0.176      -1.283      23.150
 No NMR shielding tensors so no spin-rotation constants.
 Leave Link  601 at Sun Sep 13 22:10:32 2026, MaxMem=   805306368 cpu:               0.1 elap:               0.1
 (Enter /app1/ia32-64/Gaussian/Rev-C.02/g16/l701.exe)
 ... and contract with generalized density number  0.
 Compute integral second derivatives.
 Leave Link  701 at Sun Sep 13 22:10:32 2026, MaxMem=   805306368 cpu:               0.1 elap:               0.1
 (Enter /app1/ia32-64/Gaussian/Rev-C.02/g16/l702.exe)
 L702 exits ... SP integral derivatives will be done elsewhere.
 Leave Link  702 at Sun Sep 13 22:10:33 2026, MaxMem=   805306368 cpu:               0.0 elap:               0.0
 (Enter /app1/ia32-64/Gaussian/Rev-C.02/g16/l703.exe)
 Integral derivatives from FoFJK, PRISM(SPDF).
 Compute integral second derivatives, UseDBF=F ICtDFT=           0.
 Calling FoFJK, ICntrl=    100127 FMM=F ISym2X=0 I1Cent= 0 IOpClX= 0 NMat=1 NMatS=1 NMatT=0.
 FoFJK:  IHMeth= 1 ICntrl=  100127 DoSepK=F KAlg= 0 I1Cent=           0 FoldK=F
 IRaf=         0 NMat=       1 IRICut=       1 DoRegI=T DoRafI=F ISym2E= 0 IDoP0=0 IntGTp=1.
 FoFCou: FMM=F IPFlag=           0 FMFlag=      100000 FMFlg1=         800
         NFxFlg=           0 DoJE=F BraDBF=F KetDBF=F FulRan=T
         wScrn=  0.000000 ICntrl=    100127 IOpCl=  0 I1Cent=           0 NGrid=           0
         NMat0=    1 NMatS0=      1 NMatT0=    0 NMatD0=    1 NMtDS0=    0 NMtDT0=    0
 Symmetry not used in FoFCou.
 Leave Link  703 at Sun Sep 13 22:11:17 2026, MaxMem=   805306368 cpu:              44.4 elap:              44.4
 (Enter /app1/ia32-64/Gaussian/Rev-C.02/g16/l716.exe)
 Dipole        =-3.16500239D-01 3.01024899D-01 5.66589959D-01
 Polarizability= 1.98056997D+01 1.20561626D+00 1.86555321D+01
                -3.48023297D-01-8.00168035D-01 1.77835872D+01
 Full mass-weighted force constant matrix:
 Low frequencies ---   -3.8749    0.0014    0.0016    0.0017    1.4524    3.0721
 Low frequencies ---  388.9291  539.4551  997.7216
 Diagonal vibrational polarizability:
       16.3606455      11.0823768       5.6207785
 Harmonic frequencies (cm**-1), IR intensities (KM/Mole), Raman scattering
 activities (A**4/AMU), depolarization ratios for plane and unpolarized
 incident light, reduced masses (AMU), force constants (mDyne/A),
 and normal coordinates:
                      1                      2                      3
                      A                      A                      A
 Frequencies --    388.9291               539.4551               997.7216
 Red. masses --      1.1499                 6.6975                 6.0372
 Frc consts  --      0.1025                 1.1484                 3.5408
 IR Inten    --    112.9200                27.7665               155.0007
  Atom  AN      X      Y      Z        X      Y      Z        X      Y      Z
     1   6    -0.01  -0.05   0.03     0.03   0.24   0.07     0.39  -0.34   0.02
     2   9     0.05   0.03  -0.03    -0.35  -0.07  -0.04    -0.25   0.23   0.01
     3   8    -0.02  -0.03  -0.03     0.39  -0.17  -0.04    -0.00   0.03   0.01
     4   1    -0.05  -0.11   0.06    -0.03   0.19   0.11     0.27   0.04  -0.15
     5   1     0.02  -0.00   0.08     0.05   0.32   0.13     0.18  -0.48  -0.13
     6   1    -0.62   0.68   0.35     0.03   0.56   0.38    -0.38  -0.21  -0.23
                      4                      5                      6
                      A                      A                      A
 Frequencies --   1066.9581              1133.7217              1266.3634
 Red. masses --      1.3732                 5.2814                 1.1030
 Frc consts  --      0.9210                 3.9996                 1.0422
 IR Inten    --    109.2057               118.4141                 8.2607
  Atom  AN      X      Y      Z        X      Y      Z        X      Y      Z
     1   6    -0.09   0.00   0.12    -0.29  -0.31  -0.16     0.02   0.03  -0.07
     2   9     0.02  -0.02  -0.03    -0.03   0.04   0.03    -0.00  -0.01   0.04
     3   8     0.08   0.03  -0.00     0.27   0.22   0.07     0.00  -0.01   0.00
     4   1     0.10   0.51  -0.15    -0.28  -0.68   0.04     0.62  -0.20   0.02
     5   1    -0.21  -0.43  -0.27    -0.25   0.01   0.11    -0.62   0.28   0.09
     6   1    -0.49  -0.23  -0.30     0.16   0.13  -0.03    -0.29  -0.09  -0.11
                      7                      8                      9
                      A                      A                      A
 Frequencies --   1400.6318              1448.6130              1531.4383
 Red. masses --      1.2630                 1.1431                 1.1057
 Frc consts  --      1.4599                 1.4133                 1.5279
 IR Inten    --     20.2795                27.3304                 1.7638
  Atom  AN      X      Y      Z        X      Y      Z        X      Y      Z
     1   6    -0.05  -0.05   0.09    -0.09   0.03  -0.02    -0.03  -0.09  -0.01
     2   9    -0.00   0.01   0.00    -0.01   0.02   0.00     0.01  -0.00  -0.00
     3   8    -0.02   0.01  -0.08     0.01  -0.02   0.02    -0.00  -0.00  -0.00
     4   1     0.54   0.10  -0.01     0.59  -0.20   0.05     0.13   0.60  -0.35
     5   1    -0.21  -0.28  -0.10     0.74  -0.07  -0.04     0.14   0.49   0.48
     6   1     0.60   0.32   0.28    -0.16  -0.10  -0.07     0.02   0.01   0.01
                     10                     11                     12
                      A                      A                      A
 Frequencies --   3022.1042              3109.7666              3805.6010
 Red. masses --      1.0616                 1.1063                 1.0659
 Frc consts  --      5.7124                 6.3033                 9.0950
 IR Inten    --     63.8538                36.9467                41.5520
  Atom  AN      X      Y      Z        X      Y      Z        X      Y      Z
     1   6    -0.01  -0.05  -0.05     0.00   0.04  -0.09    -0.00   0.00  -0.00
     2   9     0.00  -0.00   0.00    -0.00   0.00   0.00    -0.00   0.00  -0.00
     3   8    -0.00  -0.00   0.00     0.00  -0.00   0.00     0.01   0.04  -0.05
     4   1     0.04   0.41   0.83     0.02   0.15   0.30    -0.00  -0.00   0.01
     5   1     0.02   0.22  -0.28    -0.05  -0.60   0.71    -0.00  -0.01   0.02
     6   1    -0.00   0.00   0.00    -0.01   0.01  -0.02    -0.17  -0.57   0.80

 -------------------
 - Thermochemistry -
 -------------------
 Temperature   298.150 Kelvin.  Pressure   1.00000 Atm.
 Atom     1 has atomic number  6 and mass  12.00000
 Atom     2 has atomic number  9 and mass  18.99840
 Atom     3 has atomic number  8 and mass  15.99491
 Atom     4 has atomic number  1 and mass   1.00783
 Atom     5 has atomic number  1 and mass   1.00783
 Atom     6 has atomic number  1 and mass   1.00783
 Molecular mass:    50.01679 amu.
 Principal axes and moments of inertia in atomic units:
                           1         2         3
     Eigenvalues --    39.40166 176.53262 199.56470
           X            0.99917   0.03503  -0.02094
           Y           -0.03632   0.99722  -0.06504
           Z            0.01860   0.06574   0.99766
 This molecule is an asymmetric top.
 Rotational symmetry number  1.
 Rotational temperatures (Kelvin)      2.19823     0.49064     0.43401
 Rotational constants (GHZ):          45.80369    10.22327     9.04339
 Zero-point vibrational energy     117899.8 (Joules/Mol)
                                   28.17872 (Kcal/Mol)
 Warning -- explicit consideration of   2 degrees of freedom as
           vibrations may cause significant error
 Vibrational temperatures:    559.58   776.16  1435.50  1535.11  1631.17
          (Kelvin)           1822.01  2015.20  2084.23  2203.40  4348.13
                             4474.26  5475.41
 
 Zero-point correction=                           0.044906 (Hartree/Particle)
 Thermal correction to Energy=                    0.048373
 Thermal correction to Enthalpy=                  0.049317
 Thermal correction to Gibbs Free Energy=         0.020157
 Sum of electronic and zero-point Energies=           -215.012878
 Sum of electronic and thermal Energies=              -215.009411
 Sum of electronic and thermal Enthalpies=            -215.008467
 Sum of electronic and thermal Free Energies=         -215.037627
 
                     E (Thermal)             CV                S
                      KCal/Mol        Cal/Mol-Kelvin    Cal/Mol-Kelvin
 Total                   30.355              9.988             61.374
 Electronic               0.000              0.000              0.000
 Translational            0.889              2.981             37.653
 Rotational               0.889              2.981             21.856
 Vibrational             28.577              4.026              1.865
 Vibration     1          0.757              1.494              1.004
 Vibration     2          0.895              1.163              0.566
                       Q            Log10(Q)             Ln(Q)
 Total Bot       0.535337D-09         -9.271373        -21.348124
 Total V=0       0.241978D+12         11.383776         26.212114
 Vib (Bot)       0.288697D-20        -20.539557        -47.294079
 Vib (Bot)    1  0.461956D+00         -0.335399         -0.772285
 Vib (Bot)    2  0.293845D+00         -0.531881         -1.224702
 Vib (V=0)       0.130494D+01          0.115592          0.266160
 Vib (V=0)    1  0.118074D+01          0.072153          0.166139
 Vib (V=0)    2  0.107995D+01          0.033405          0.076917
 Electronic      0.100000D+01          0.000000          0.000000
 Translational   0.139036D+08          7.143128         16.447659
 Rotational      0.133370D+05          4.125057          9.498295
 
                                    CFH2-OH (fluoromethanol) ground-state opt+fre
 q / B3LYP/cc-pVTZ
                                                             IR Spectrum
 
     3                       3  3                                                1  1 1   1    1 1                                   
     8                       1  0                                                5  4 4   2    1 0 9              5     3            
     0                       1  2                                                3  4 0   6    3 6 9              3     8            
     6                       0  2                                                1  9 1   6    4 7 8              9     9            
 
     X                       X  X                                                X  X X   X    X X X              X     X            
     X                       X  X                                                   X X        X X X              X     X            
     X                       X  X                                                   X X        X X X              X     X            
     X                       X  X                                                   X          X X X              X     X            
     X                       X  X                                                              X X X                    X            
                                X                                                              X X X                    X            
                                X                                                              X X X                    X            
                                X                                                              X X X                    X            
                                                                                               X X X                    X            
                                                                                               X X X                    X            
                                                                                               X X X                    X            
                                                                                               X X X                    X            
                                                                                               X X X                    X            
                                                                                               X X X                    X            
                                                                                               X   X                    X            
                                                                                                   X                                 
                                                                                                   X                                 
                                                                                                   X                                 
                                                                                                   X                                 
                                                                                                   X                                 
 
 ***** Axes restored to original set *****
 -------------------------------------------------------------------
 Center     Atomic                   Forces (Hartrees/Bohr)
 Number     Number              X              Y              Z
 -------------------------------------------------------------------
      1        6           0.000011019    0.000006341    0.000001064
      2        9           0.000001085   -0.000001715   -0.000003191
      3        8          -0.000014040   -0.000004306    0.000005789
      4        1           0.000001079   -0.000001677   -0.000000436
      5        1          -0.000001413    0.000000442   -0.000002501
      6        1           0.000002270    0.000000915   -0.000000725
 -------------------------------------------------------------------
 Cartesian Forces:  Max     0.000014040 RMS     0.000004974
 Force constants in Cartesian coordinates: 
                1             2             3             4             5 
      1  0.553013D+00
      2 -0.172153D-01  0.675051D+00
      3  0.681015D-01 -0.196254D-01  0.419367D+00
      4 -0.646441D-01  0.886491D-03 -0.115236D-01  0.601407D-01
      5 -0.215472D-03 -0.743682D-01 -0.556482D-02  0.211756D-02  0.468446D-01
      6 -0.278454D-01 -0.480129D-02 -0.212202D+00 -0.160508D-01  0.698304D-02
      7 -0.261150D+00 -0.277027D-01  0.249961D-01 -0.108792D-01  0.668556D-03
      8  0.164799D-01 -0.109340D+00  0.887679D-02  0.253301D-03  0.119551D-01
      9  0.248031D-01  0.194115D-01 -0.715942D-01  0.528751D-01  0.131184D-02
     10 -0.102075D+00 -0.820629D-01 -0.333801D-01  0.685254D-02 -0.889589D-03
     11 -0.895073D-01 -0.242525D+00 -0.569827D-01  0.740136D-03  0.662334D-02
     12 -0.345145D-01 -0.504953D-01 -0.631266D-01 -0.132272D-01 -0.314328D-01
     13 -0.964944D-01  0.808396D-01 -0.377466D-01  0.599698D-02  0.719678D-04
     14  0.939283D-01 -0.248963D+00  0.736821D-01 -0.249631D-02  0.928938D-02
     15 -0.407600D-01  0.671994D-01 -0.751741D-01 -0.115046D-01  0.287555D-01
     16 -0.286491D-01  0.452549D-01 -0.104474D-01  0.253316D-02 -0.175302D-02
     17 -0.347008D-02  0.145016D-03 -0.385959D-03 -0.150118D-02 -0.344146D-03
     18  0.102152D-01 -0.116889D-01  0.273041D-02 -0.568833D-03 -0.527461D-04
                6             7             8             9            10 
      6  0.319670D+00
      7  0.450065D-01  0.455432D+00
      8 -0.736535D-03 -0.167922D+00  0.487985D+00
      9 -0.318405D-01 -0.454287D-01 -0.116573D+00  0.126158D+00
     10 -0.127077D-02 -0.340529D-01 -0.297927D-01 -0.176346D-02  0.117451D+00
     11 -0.516519D-02 -0.301225D-02  0.758692D-02  0.137834D-02  0.103999D+00
     12 -0.383464D-01  0.121491D-01  0.776922D-02  0.846342D-02  0.324492D-01
     13  0.159315D-03 -0.298339D-01  0.342920D-01 -0.581892D-02  0.944014D-02
     14  0.214118D-02  0.314324D-02  0.500394D-02 -0.257295D-02  0.105056D-01
     15 -0.361826D-01  0.771867D-02 -0.831690D-02  0.533140D-02  0.330463D-02
     16  0.115125D-05 -0.119516D+00  0.146689D+00 -0.246671D-01  0.238439D-02
     17  0.157880D-02  0.194825D+00 -0.403192D+00  0.970444D-01 -0.175897D-02
     18 -0.109848D-02 -0.444416D-01  0.108981D+00 -0.365186D-01  0.660464D-03
               11            12            13            14            15 
     11  0.244626D+00
     12  0.666007D-01  0.865850D-01
     13 -0.116098D-01  0.394249D-02  0.117252D+00
     14 -0.185681D-01  0.780171D-02 -0.103282D+00  0.250302D+00
     15 -0.674562D-02  0.754979D-02  0.385881D-01 -0.812833D-01  0.961639D-01
     16 -0.609331D-03 -0.799074D-03 -0.636046D-02 -0.179859D-02  0.265320D-02
     17  0.225672D-02 -0.243517D-03 -0.311465D-03  0.293569D-02  0.390912D-03
     18  0.914443D-03 -0.112526D-02  0.875591D-03  0.231310D-03  0.231159D-02
               16            17            18 
     16  0.149608D+00
     17 -0.187783D+00  0.398198D+00
     18  0.332591D-01 -0.983846D-01  0.337004D-01
 FormGI is forming the generalized inverse of G from B-inverse, IUseBI=4.
 Force constants in internal coordinates: 
                1             2             3             4             5 
      1  0.320772D+00
      2  0.542005D-01  0.386720D+00
      3  0.163907D-01  0.151115D-01  0.325768D+00
      4  0.144665D-01  0.134455D-01  0.426391D-02  0.339750D+00
      5 -0.179133D-02  0.284199D-02  0.514207D-03 -0.215155D-02  0.520435D+00
      6  0.164066D-01  0.223324D-01 -0.306958D-02 -0.178591D-02 -0.450582D-02
      7  0.272775D-01 -0.299395D-01  0.367037D-02 -0.248867D-02  0.138176D-02
      8  0.241358D-01 -0.260868D-01 -0.252850D-02  0.102092D-02  0.855044D-03
      9 -0.267035D-01  0.279237D-01  0.125711D-02 -0.731414D-02 -0.560062D-02
     10 -0.255207D-01  0.325156D-01 -0.718684D-02  0.503475D-02  0.772620D-02
     11 -0.124375D-01 -0.299089D-01  0.784414D-02  0.579849D-02  0.149320D-03
     12  0.141687D-02  0.501963D-01 -0.678283D-03  0.282101D-02  0.183587D-01
     13  0.202676D-02 -0.160401D-02  0.478040D-02 -0.425383D-02 -0.167019D-02
     14 -0.262674D-01  0.209863D-02  0.137582D-02  0.516221D-02  0.352925D-02
     15  0.249354D-01 -0.128221D-02 -0.426372D-02 -0.997509D-03  0.149346D-02
                6             7             8             9            10 
      6  0.219536D+00
      7 -0.733734D-01  0.105990D+00
      8 -0.605167D-01  0.521766D-02  0.100492D+00
      9 -0.356439D-01 -0.358499D-01 -0.110204D-01  0.142227D+00
     10 -0.337769D-01 -0.994490D-02 -0.357103D-01 -0.307910D-01  0.143944D+00
     11 -0.131818D-01  0.836839D-02  0.739271D-02 -0.355163D-01 -0.388716D-01
     12 -0.923731D-02 -0.106836D-03 -0.274087D-03 -0.660111D-02  0.197852D-01
     13  0.234202D-02  0.332856D-01 -0.354696D-01  0.264589D-01 -0.288062D-01
     14 -0.333929D-01 -0.266628D-01  0.778868D-02  0.655707D-03  0.285703D-01
     15  0.304210D-01 -0.690178D-02  0.309462D-01 -0.249405D-01 -0.443569D-02
               11            12            13            14            15 
     11  0.750544D-01
     12 -0.399377D-02  0.183664D+00
     13 -0.241997D-03 -0.770185D-02  0.421612D-01
     14  0.224388D-01  0.340409D-02 -0.201245D-01  0.370134D-01
     15 -0.218581D-01 -0.130074D-02 -0.165560D-01 -0.120877D-01  0.349205D-01
 Leave Link  716 at Sun Sep 13 22:11:17 2026, MaxMem=   805306368 cpu:               0.0 elap:               0.0
 (Enter /app1/ia32-64/Gaussian/Rev-C.02/g16/l103.exe)

 GradGradGradGradGradGradGradGradGradGradGradGradGradGradGradGradGradGrad
 Berny optimization.
 Red2BG is reusing G-inverse.
 Internal  Forces:  Max     0.000012905 RMS     0.000003895
 Search for a local minimum.
 Step number   1 out of a maximum of    2
 All quantities printed in internal units (Hartrees-Bohrs-Radians)
 Second derivative matrix not updated -- analytic derivatives used.
 The second derivative matrix:
                          R1        R2        R3        R4        R5
           R1           0.32077
           R2           0.05420   0.38672
           R3           0.01639   0.01511   0.32577
           R4           0.01447   0.01345   0.00426   0.33975
           R5          -0.00179   0.00284   0.00051  -0.00215   0.52043
           A1           0.01641   0.02233  -0.00307  -0.00179  -0.00451
           A2           0.02728  -0.02994   0.00367  -0.00249   0.00138
           A3           0.02414  -0.02609  -0.00253   0.00102   0.00086
           A4          -0.02670   0.02792   0.00126  -0.00731  -0.00560
           A5          -0.02552   0.03252  -0.00719   0.00503   0.00773
           A6          -0.01244  -0.02991   0.00784   0.00580   0.00015
           A7           0.00142   0.05020  -0.00068   0.00282   0.01836
           D1           0.00203  -0.00160   0.00478  -0.00425  -0.00167
           D2          -0.02627   0.00210   0.00138   0.00516   0.00353
           D3           0.02494  -0.00128  -0.00426  -0.00100   0.00149
                          A1        A2        A3        A4        A5
           A1           0.21954
           A2          -0.07337   0.10599
           A3          -0.06052   0.00522   0.10049
           A4          -0.03564  -0.03585  -0.01102   0.14223
           A5          -0.03378  -0.00994  -0.03571  -0.03079   0.14394
           A6          -0.01318   0.00837   0.00739  -0.03552  -0.03887
           A7          -0.00924  -0.00011  -0.00027  -0.00660   0.01979
           D1           0.00234   0.03329  -0.03547   0.02646  -0.02881
           D2          -0.03339  -0.02666   0.00779   0.00066   0.02857
           D3           0.03042  -0.00690   0.03095  -0.02494  -0.00444
                          A6        A7        D1        D2        D3
           A6           0.07505
           A7          -0.00399   0.18366
           D1          -0.00024  -0.00770   0.04216
           D2           0.02244   0.00340  -0.02012   0.03701
           D3          -0.02186  -0.00130  -0.01656  -0.01209   0.03492
 ITU=  0
     Eigenvalues ---    0.00538   0.09047   0.14025   0.14261   0.16070
     Eigenvalues ---    0.19883   0.27790   0.31776   0.33263   0.34588
     Eigenvalues ---    0.44381   0.52222
 Angle between quadratic step and forces=  44.04 degrees.
 Linear search not attempted -- first point.
 Iteration  1 RMS(Cart)=  0.00001373 RMS(Int)=  0.00000000
 Iteration  2 RMS(Cart)=  0.00000000 RMS(Int)=  0.00000000
 ITry= 1 IFail=0 DXMaxC= 2.84D-05 DCOld= 1.00D+10 DXMaxT= 3.00D-01 DXLimC= 3.00D+00 Rises=F
 Variable       Old X    -DE/DX   Delta X   Delta X   Delta X     New X
                                 (Linear)    (Quad)   (Total)
    R1        2.63015  -0.00000   0.00000  -0.00001  -0.00001   2.63014
    R2        2.60404  -0.00001   0.00000  -0.00004  -0.00004   2.60401
    R3        2.06628   0.00000   0.00000   0.00001   0.00001   2.06629
    R4        2.05693   0.00000   0.00000   0.00001   0.00001   2.05694
    R5        1.81985   0.00000   0.00000  -0.00000  -0.00000   1.81985
    A1        1.93983  -0.00000   0.00000  -0.00000  -0.00000   1.93983
    A2        1.85372  -0.00000   0.00000  -0.00001  -0.00001   1.85371
    A3        1.87970   0.00000   0.00000   0.00001   0.00001   1.87971
    A4        1.97100  -0.00000   0.00000  -0.00001  -0.00001   1.97099
    A5        1.87265   0.00000   0.00000   0.00001   0.00001   1.87266
    A6        1.94580   0.00000   0.00000  -0.00001  -0.00001   1.94579
    A7        1.90810   0.00000   0.00000   0.00003   0.00003   1.90814
    D1        1.23905  -0.00000   0.00000   0.00001   0.00001   1.23906
    D2       -0.84224   0.00000   0.00000   0.00003   0.00003  -0.84221
    D3       -2.99331   0.00000   0.00000   0.00004   0.00004  -2.99327
         Item               Value     Threshold  Converged?
 Maximum Force            0.000013     0.000015     YES
 RMS     Force            0.000004     0.000010     YES
 Maximum Displacement     0.000028     0.000060     YES
 RMS     Displacement     0.000014     0.000040     YES
 Predicted change in Energy=-3.984045D-10
 Optimization completed.
    -- Stationary point found.
                           ----------------------------
                           !   Optimized Parameters   !
                           ! (Angstroms and Degrees)  !
 --------------------------                            --------------------------
 ! Name  Definition              Value          Derivative Info.                !
 --------------------------------------------------------------------------------
 ! R1    R(1,2)                  1.3918         -DE/DX =    0.0                 !
 ! R2    R(1,3)                  1.378          -DE/DX =    0.0                 !
 ! R3    R(1,4)                  1.0934         -DE/DX =    0.0                 !
 ! R4    R(1,5)                  1.0885         -DE/DX =    0.0                 !
 ! R5    R(3,6)                  0.963          -DE/DX =    0.0                 !
 ! A1    A(2,1,3)              111.144          -DE/DX =    0.0                 !
 ! A2    A(2,1,4)              106.2103         -DE/DX =    0.0                 !
 ! A3    A(2,1,5)              107.6986         -DE/DX =    0.0                 !
 ! A4    A(3,1,4)              112.9297         -DE/DX =    0.0                 !
 ! A5    A(3,1,5)              107.2949         -DE/DX =    0.0                 !
 ! A6    A(4,1,5)              111.4863         -DE/DX =    0.0                 !
 ! A7    A(1,3,6)              109.3262         -DE/DX =    0.0                 !
 ! D1    D(2,1,3,6)             70.9921         -DE/DX =    0.0                 !
 ! D2    D(4,1,3,6)            -48.2567         -DE/DX =    0.0                 !
 ! D3    D(5,1,3,6)           -171.5039         -DE/DX =    0.0                 !
 --------------------------------------------------------------------------------
 GradGradGradGradGradGradGradGradGradGradGradGradGradGradGradGradGradGrad

 Leave Link  103 at Sun Sep 13 22:11:17 2026, MaxMem=   805306368 cpu:               0.0 elap:               0.1
 (Enter /app1/ia32-64/Gaussian/Rev-C.02/g16/l9999.exe)

 ----------------------------------------------------------------------

 Electric dipole moment (input orientation):
 (Debye = 10**-18 statcoulomb cm , SI units = C m)
                  (au)            (Debye)         (10**-30 SI)
   Tot        0.715411D+00      0.181839D+01      0.606551D+01
   x         -0.819828D-01     -0.208379D+00     -0.695079D+00
   y         -0.542782D+00     -0.137961D+01     -0.460190D+01
   z         -0.458780D+00     -0.116610D+01     -0.388970D+01

 Dipole polarizability, Alpha (input orientation).
 (esu units = cm**3 , SI units = C**2 m**2 J**-1)
 Alpha(0;0):
               (au)            (10**-24 esu)      (10**-40 SI)
   iso        0.187483D+02      0.277821D+01      0.309117D+01
   aniso      0.311942D+01      0.462250D+00      0.514322D+00
   xx         0.201311D+02      0.298313D+01      0.331918D+01
   yx        -0.105562D+01     -0.156427D+00     -0.174049D+00
   yy         0.180067D+02      0.266832D+01      0.296891D+01
   zx        -0.811928D+00     -0.120315D+00     -0.133869D+00
   zy        -0.182401D+00     -0.270290D-01     -0.300738D-01
   zz         0.181070D+02      0.268318D+01      0.298544D+01

 ----------------------------------------------------------------------

 Dipole orientation:
     6          0.03341590          0.01847998          0.00222031
     9         -0.46541827          1.96439545         -1.69549617
     8          2.58671588         -0.47313288          0.14371845
     1         -0.77407556          0.60914764          1.81014641
     1         -0.87818812         -1.68214493         -0.71040145
     1          3.41777381          0.89987751          1.00165421

 Electric dipole moment (dipole orientation):
 (Debye = 10**-18 statcoulomb cm , SI units = C m)
                  (au)            (Debye)         (10**-30 SI)
   Tot        0.715411D+00      0.181839D+01      0.606551D+01
   x          0.000000D+00      0.000000D+00      0.000000D+00
   y          0.000000D+00      0.000000D+00      0.000000D+00
   z          0.715411D+00      0.181839D+01      0.606551D+01

 Dipole polarizability, Alpha (dipole orientation).
 (esu units = cm**3 , SI units = C**2 m**2 J**-1)
 Alpha(0;0):
               (au)            (10**-24 esu)      (10**-40 SI)
   iso        0.187483D+02      0.277821D+01      0.309117D+01
   aniso      0.311942D+01      0.462250D+00      0.514322D+00
   xx         0.203919D+02      0.302177D+01      0.336217D+01
   yx         0.173403D+00      0.256957D-01      0.285903D-01
   yy         0.182574D+02      0.270547D+01      0.301025D+01
   zx         0.103774D+01      0.153778D+00      0.171101D+00
   zy         0.294297D-01      0.436103D-02      0.485230D-02
   zz         0.175955D+02      0.260738D+01      0.290110D+01

 ----------------------------------------------------------------------
 Unable to Open any file for archive entry.
 1\1\GINC-CNODE-33-43-49\Freq\RB3LYP\CC-pVTZ\C1H3F1O1\ZHANGXUBO\13-Sep-
 2026\0\\#P Geom=AllCheck Guess=TCheck SCRF=Check GenChk RB3LYP/CC-pVTZ
  Freq\\CFH2-OH (fluoromethanol) ground-state opt+freq / B3LYP/cc-pVTZ\
 \0,1\C,0.0179248405,-0.008177598,0.0046396175\F,-0.0864350264,0.018828
 0577,1.3922717302\O,1.3359007369,0.0323495411,-0.3955894251\H,-0.49903
 95904,-0.9143453299,-0.32277035\H,-0.465073257,0.8877950102,-0.3810287
 388\H,1.7586209671,-0.8071432205,-0.1858820945\\Version=ES64L-G16RevC.
 02\State=1-A\HF=-215.0577838\RMSD=2.005e-09\RMSF=4.974e-06\ZeroPoint=0
 .0449057\Thermal=0.048373\ETot=-215.0094107\HTot=-215.0084666\GTot=-21
 5.0376272\Dipole=-0.0819828,-0.5427823,-0.4587797\DipoleDeriv=1.148207
 5,-0.0023729,-0.2510064,0.0183955,0.6296575,0.0446254,-0.2911626,0.072
 3777,1.2824816,-0.3617386,0.0096226,0.0498708,0.0010104,-0.2998717,-0.
 020977,0.2123879,-0.0432308,-1.0231748,-1.0034739,-0.0011928,0.237123,
 0.0055486,-0.3182796,-0.0852361,0.1061696,-0.0960024,-0.5599452,-0.065
 9795,-0.056336,-0.024089,-0.1221522,-0.1231792,-0.0699547,-0.002415,-0
 .0337857,-0.0183659,-0.0090725,0.043748,-0.0206735,0.0829431,-0.077337
 ,0.0664378,-0.0163547,0.0253944,-0.0051869,0.2920569,0.0065312,0.00877
 51,0.0142547,0.1890101,0.0651046,-0.0086253,0.0752468,0.3241912\Polar=
 20.1311362,-1.0556238,18.0067138,-0.8119284,-0.1824008,18.106969\Quadr
 upole=0.6472463,1.2692703,-1.9165166,-1.7369606,1.2941878,0.413665\PG=
 C01 [X(C1H3F1O1)]\NImag=0\\0.55301253,-0.01721533,0.67505094,0.0681015
 4,-0.01962539,0.41936660,-0.06464410,0.00088649,-0.01152361,0.06014065
 ,-0.00021547,-0.07436820,-0.00556482,0.00211756,0.04684457,-0.02784539
 ,-0.00480129,-0.21220216,-0.01605078,0.00698304,0.31967015,-0.26114970
 ,-0.02770268,0.02499609,-0.01087922,0.00066856,0.04500648,0.45543170,0
 .01647993,-0.10933951,0.00887679,0.00025330,0.01195506,-0.00073653,-0.
 16792184,0.48798526,0.02480308,0.01941151,-0.07159416,0.05287507,0.001
 31184,-0.03184051,-0.04542872,-0.11657314,0.12615850,-0.10207518,-0.08
 206291,-0.03338009,0.00685254,-0.00088959,-0.00127077,-0.03405291,-0.0
 2979273,-0.00176346,0.11745103,-0.08950734,-0.24252513,-0.05698269,0.0
 0074014,0.00662334,-0.00516519,-0.00301225,0.00758692,0.00137834,0.103
 99856,0.24462625,-0.03451450,-0.05049529,-0.06312661,-0.01322723,-0.03
 143284,-0.03834636,0.01214909,0.00776922,0.00846342,0.03244923,0.06660
 072,0.08658502,-0.09649444,0.08083957,-0.03774656,0.00599698,0.0000719
 7,0.00015932,-0.02983394,0.03429199,-0.00581892,0.00944014,-0.01160977
 ,0.00394249,0.11725172,0.09392829,-0.24896313,0.07368207,-0.00249631,0
 .00928938,0.00214118,0.00314324,0.00500394,-0.00257295,0.01050565,-0.0
 1856810,0.00780171,-0.10328229,0.25030222,-0.04075997,0.06719940,-0.07
 517408,-0.01150461,0.02875553,-0.03618263,0.00771867,-0.00831690,0.005
 33140,0.00330463,-0.00674562,0.00754979,0.03858809,-0.08128332,0.09616
 393,-0.02864911,0.04525486,-0.01044737,0.00253316,-0.00175302,0.000001
 15,-0.11951592,0.14668935,-0.02466705,0.00238439,-0.00060933,-0.000799
 07,-0.00636046,-0.00179859,0.00265320,0.14960794,-0.00347008,0.0001450
 2,-0.00038596,-0.00150118,-0.00034415,0.00157880,0.19482497,-0.4031916
 7,0.09704440,-0.00175897,0.00225672,-0.00024352,-0.00031146,0.00293569
 ,0.00039091,-0.18778327,0.39819840,0.01021523,-0.01168895,0.00273041,-
 0.00056883,-0.00005275,-0.00109848,-0.04444160,0.10898058,-0.03651864,
 0.00066046,0.00091444,-0.00112526,0.00087559,0.00023131,0.00231159,0.0
 3325915,-0.09838464,0.03370039\\-0.00001102,-0.00000634,-0.00000106,-0
 .00000108,0.00000172,0.00000319,0.00001404,0.00000431,-0.00000579,-0.0
 0000108,0.00000168,0.00000044,0.00000141,-0.00000044,0.00000250,-0.000
 00227,-0.00000091,0.00000073\\\@
 The archive entry for this job was punched.


 "PERFECTION IS NOT AN ACCIDENT"
         --  EAGLE ELECTRIC MANUFACTURING CO.,INC. NY
 Job cpu time:       0 days  0 hours  1 minutes 21.5 seconds.
 Elapsed time:       0 days  0 hours  1 minutes 24.3 seconds.
 File lengths (MBytes):  RWF=     15 Int=      0 D2E=      0 Chk=      3 Scr=      1
 Normal termination of Gaussian 16 at Sun Sep 13 22:11:17 2026.
 Initial command:
 /app1/ia32-64/Gaussian/Rev-C.02/g16/l1.exe "/scratch/1005639.venus01/Gau-64749.inp" -scrdir="/scratch/1005639.venus01/"
 Entering Link 1 = /app1/ia32-64/Gaussian/Rev-C.02/g16/l1.exe PID=     66514.
  
 Copyright (c) 1988-2021, Gaussian, Inc.  All Rights Reserved.
  
 This is part of the Gaussian(R) 16 program.  It is based on
 the Gaussian(R) 09 system (copyright 2009, Gaussian, Inc.),
 the Gaussian(R) 03 system (copyright 2003, Gaussian, Inc.),
 the Gaussian(R) 98 system (copyright 1998, Gaussian, Inc.),
 the Gaussian(R) 94 system (copyright 1995, Gaussian, Inc.),
 the Gaussian 92(TM) system (copyright 1992, Gaussian, Inc.),
 the Gaussian 90(TM) system (copyright 1990, Gaussian, Inc.),
 the Gaussian 88(TM) system (copyright 1988, Gaussian, Inc.),
 the Gaussian 86(TM) system (copyright 1986, Carnegie Mellon
 University), and the Gaussian 82(TM) system (copyright 1983,
 Carnegie Mellon University). Gaussian is a federally registered
 trademark of Gaussian, Inc.
  
 This software contains proprietary and confidential information,
 including trade secrets, belonging to Gaussian, Inc.
  
 This software is provided under written license and may be
 used, copied, transmitted, or stored only in accord with that
 written license.
  
 The following legend is applicable only to US Government
 contracts under FAR:
  
                    RESTRICTED RIGHTS LEGEND
  
 Use, reproduction and disclosure by the US Government is
 subject to restrictions as set forth in subparagraphs (a)
 and (c) of the Commercial Computer Software - Restricted
 Rights clause in FAR 52.227-19.
  
 Gaussian, Inc.
 340 Quinnipiac St., Bldg. 40, Wallingford CT 06492
  
  
 ---------------------------------------------------------------
 Warning -- This program may not be used in any manner that
 competes with the business of Gaussian, Inc. or will provide
 assistance to any competitor of Gaussian, Inc.  The licensee
 of this program is prohibited from giving any competitor of
 Gaussian, Inc. access to this program.  By using this program,
 the user acknowledges that Gaussian, Inc. is engaged in the
 business of creating and licensing software in the field of
 computational chemistry and represents and warrants to the
 licensee that it is not a competitor of Gaussian, Inc. and that
 it will not use this program in any manner prohibited above.
 ---------------------------------------------------------------
  

 Cite this work as:
 Gaussian 16, Revision C.02,
 M. J. Frisch, G. W. Trucks, H. B. Schlegel, G. E. Scuseria, 
 M. A. Robb, J. R. Cheeseman, G. Scalmani, V. Barone, 
 G. A. Petersson, H. Nakatsuji, X. Li, M. Caricato, A. V. Marenich, 
 J. Bloino, B. G. Janesko, R. Gomperts, B. Mennucci, H. P. Hratchian, 
 J. V. Ortiz, A. F. Izmaylov, J. L. Sonnenberg, D. Williams-Young, 
 F. Ding, F. Lipparini, F. Egidi, J. Goings, B. Peng, A. Petrone, 
 T. Henderson, D. Ranasinghe, V. G. Zakrzewski, J. Gao, N. Rega, 
 G. Zheng, W. Liang, M. Hada, M. Ehara, K. Toyota, R. Fukuda, 
 J. Hasegawa, M. Ishida, T. Nakajima, Y. Honda, O. Kitao, H. Nakai, 
 T. Vreven, K. Throssell, J. A. Montgomery, Jr., J. E. Peralta, 
 F. Ogliaro, M. J. Bearpark, J. J. Heyd, E. N. Brothers, K. N. Kudin, 
 V. N. Staroverov, T. A. Keith, R. Kobayashi, J. Normand, 
 K. Raghavachari, A. P. Rendell, J. C. Burant, S. S. Iyengar, 
 J. Tomasi, M. Cossi, J. M. Millam, M. Klene, C. Adamo, R. Cammi, 
 J. W. Ochterski, R. L. Martin, K. Morokuma, O. Farkas, 
 J. B. Foresman, and D. J. Fox, Gaussian, Inc., Wallingford CT, 2019.
 
 ******************************************
 Gaussian 16:  ES64L-G16RevC.02  7-Dec-2021
                13-Sep-2026 
 ******************************************
 %oldchk=ch2foh.chk
 %chk=ch2foh_tda.chk
 %mem=6GB
 %nprocshared=1
 Will use up to    1 processors via shared memory.
 Copying data from "ch2foh.chk" to current chk file "ch2foh_tda.chk"
 IOpt=  2 FromEx=T IUOpen= 4 IOptOp= 5 NList=   0 IFRang= 0 IUIn= 4 IUOut= 2.
 -------------------------------------------------------------------
 #p tda(nstates=5) b3lyp/cc-pVTZ geom=check guess=read int=ultrafine
 -------------------------------------------------------------------
 1/29=2,38=1,172=1/1;
 2/12=2,40=1/2;
 3/5=16,6=1,11=9,14=-4,25=1,30=1,74=-5,75=-5,116=-2/1,2,3,8;
 4/5=1/1;
 5/5=2,38=6/2;
 8/6=1,10=1,108=5/1;
 9/41=5,42=1/14;
 6/7=2,8=2,9=2,10=2/1;
 99/5=1,9=1/99;
 Leave Link    1 at Sun Sep 13 22:11:18 2026, MaxMem=   805306368 cpu:               0.0 elap:               0.1
 (Enter /app1/ia32-64/Gaussian/Rev-C.02/g16/l101.exe)
 ----------------------------------------------------------------------
 CFH2-OH first 5 excited states / TD-DFT + Tamm-Dancoff (TDA) B3LYP/cc-
 pVTZ
 ----------------------------------------------------------------------
 Structure from the checkpoint file:  "ch2foh_tda.chk"
 Charge =  0 Multiplicity = 1
 Redundant internal coordinates found in file.  (old form).
 C,0,0.0179248405,-0.008177598,0.0046396175
 F,0,-0.0864350264,0.0188280577,1.3922717302
 O,0,1.3359007369,0.0323495411,-0.3955894251
 H,0,-0.4990395904,-0.9143453299,-0.32277035
 H,0,-0.465073257,0.8877950102,-0.3810287388
 H,0,1.7586209671,-0.8071432205,-0.1858820945
 Recover connectivity data from disk.
 ITRead=  0  0  0  0  0  0
 MicOpt= -1 -1 -1 -1 -1 -1
                           ----------------------------
                           !    Current Parameters    !
                           ! (Angstroms and Degrees)  !
 --------------------------                            --------------------------
 ! Name  Definition              Value                                          !
 --------------------------------------------------------------------------------
 ! R1    R(1,2)                  1.3918                                         !
 ! R2    R(1,3)                  1.378                                          !
 ! R3    R(1,4)                  1.0934                                         !
 ! R4    R(1,5)                  1.0885                                         !
 ! R5    R(3,6)                  0.963                                          !
 ! A1    A(2,1,3)              111.144                                          !
 ! A2    A(2,1,4)              106.2103                                         !
 ! A3    A(2,1,5)              107.6986                                         !
 ! A4    A(3,1,4)              112.9297                                         !
 ! A5    A(3,1,5)              107.2949                                         !
 ! A6    A(4,1,5)              111.4863                                         !
 ! A7    A(1,3,6)              109.3262                                         !
 ! D1    D(2,1,3,6)             70.9921                                         !
 ! D2    D(4,1,3,6)            -48.2567                                         !
 ! D3    D(5,1,3,6)           -171.5039                                         !
 --------------------------------------------------------------------------------
 NAtoms=      6 NQM=        6 NQMF=       0 NMMI=      0 NMMIF=      0
                NMic=       0 NMicF=      0.
                    Isotopes and Nuclear Properties:
 (Nuclear quadrupole moments (NQMom) in fm**2, nuclear magnetic moments (NMagM)
  in nuclear magnetons)

  Atom         1           2           3           4           5           6
 IAtWgt=          12          19          16           1           1           1
 AtmWgt=  12.0000000  18.9984032  15.9949146   1.0078250   1.0078250   1.0078250
 NucSpn=           0           1           0           1           1           1
 AtZEff=   3.6000000   6.7500000   5.6000000   1.0000000   1.0000000   1.0000000
 NQMom=    0.0000000   0.0000000   0.0000000   0.0000000   0.0000000   0.0000000
 NMagM=    0.0000000   2.6288670   0.0000000   2.7928460   2.7928460   2.7928460
 AtZNuc=   6.0000000   9.0000000   8.0000000   1.0000000   1.0000000   1.0000000
 Leave Link  101 at Sun Sep 13 22:11:18 2026, MaxMem=   805306368 cpu:               0.2 elap:               0.2
 (Enter /app1/ia32-64/Gaussian/Rev-C.02/g16/l202.exe)
                          Input orientation:                          
 ---------------------------------------------------------------------
 Center     Atomic      Atomic             Coordinates (Angstroms)
 Number     Number       Type             X           Y           Z
 ---------------------------------------------------------------------
      1          6           0        0.017925   -0.008178    0.004640
      2          9           0       -0.086435    0.018828    1.392272
      3          8           0        1.335901    0.032350   -0.395589
      4          1           0       -0.499040   -0.914345   -0.322770
      5          1           0       -0.465073    0.887795   -0.381029
      6          1           0        1.758621   -0.807143   -0.185882
 ---------------------------------------------------------------------
                    Distance matrix (angstroms):
                    1          2          3          4          5
     1  C    0.000000
     2  F    1.391813   0.000000
     3  O    1.378001   2.284660   0.000000
     4  H    1.093430   1.995601   2.066044   0.000000
     5  H    1.088483   2.010737   1.993867   1.803402   0.000000
     6  H    1.924751   2.564572   0.963025   2.264346   2.802805
                    6
     6  H    0.000000
 Stoichiometry    CH3FO
 Framework group  C1[X(CH3FO)]
 Deg. of freedom    12
 Full point group                 C1      NOp   1
 RotChk:  IX=0 Diff= 1.22D-15
 Largest Abelian subgroup         C1      NOp   1
 Largest concise Abelian subgroup C1      NOp   1
                         Standard orientation:                         
 ---------------------------------------------------------------------
 Center     Atomic      Atomic             Coordinates (Angstroms)
 Number     Number       Type             X           Y           Z
 ---------------------------------------------------------------------
      1          6           0        0.014141    0.509888    0.046741
      2          9           0        1.136386   -0.310210   -0.025020
      3          8           0       -1.144432   -0.217407   -0.119493
      4          1           0        0.065600    1.013543    1.015902
      5          1           0        0.070704    1.220839   -0.775538
      6          1           0       -1.293166   -0.762568    0.660312
 ---------------------------------------------------------------------
 Rotational constants (GHZ):          45.8036900          10.2232730           9.0433890
 Leave Link  202 at Sun Sep 13 22:11:18 2026, MaxMem=   805306368 cpu:               0.0 elap:               0.0
 (Enter /app1/ia32-64/Gaussian/Rev-C.02/g16/l301.exe)
 Standard basis: CC-pVTZ (5D, 7F)
 Ernie: Thresh=  0.10000D-02 Tol=  0.10000D-05 Strict=F.
 Ernie:  9 primitive shells out of 102 were deleted.
 There are   150 symmetry adapted cartesian basis functions of A   symmetry.
 There are   132 symmetry adapted basis functions of A   symmetry.
   132 basis functions,   207 primitive gaussians,   150 cartesian basis functions
    13 alpha electrons       13 beta electrons
       nuclear repulsion energy        79.0075108787 Hartrees.
 IExCor=  402 DFT=T Ex+Corr=B3LYP ExCW=0 ScaHFX=  0.200000
 ScaDFX=  0.800000  0.720000  1.000000  0.810000 ScalE2=  1.000000  1.000000
 IRadAn=      5 IRanWt=     -1 IRanGd=            0 ICorTp=0 IEmpDi=  4
 NAtoms=    6 NActive=    6 NUniq=    6 SFac= 1.00D+00 NAtFMM=   60 NAOKFM=F Big=F
 Integral buffers will be    131072 words long.
 Regular integral format.
 Two-electron integral symmetry is turned on.
 Leave Link  301 at Sun Sep 13 22:11:18 2026, MaxMem=   805306368 cpu:               0.0 elap:               0.0
 (Enter /app1/ia32-64/Gaussian/Rev-C.02/g16/l302.exe)
 NPDir=0 NMtPBC=     1 NCelOv=     1 NCel=       1 NClECP=     1 NCelD=      1
         NCelK=      1 NCelE2=     1 NClLst=     1 CellRange=     0.0.
 One-electron integrals computed using PRISM.
 One-electron integral symmetry used in STVInt
 NBasis=   132 RedAO= T EigKep=  1.90D-03  NBF=   132
 NBsUse=   132 1.00D-06 EigRej= -1.00D+00 NBFU=   132
 Precomputing XC quadrature grid using
 IXCGrd= 4 IRadAn=           5 IRanWt=          -1 IRanGd=           0 AccXCQ= 0.00D+00.
 Generated NRdTot=       0 NPtTot=           0 NUsed=           0 NTot=          32
 NSgBfM=   150   150   150   150   150 MxSgAt=     6 MxSgA2=     6.
 Leave Link  302 at Sun Sep 13 22:11:19 2026, MaxMem=   805306368 cpu:               0.1 elap:               0.2
 (Enter /app1/ia32-64/Gaussian/Rev-C.02/g16/l303.exe)
 DipDrv:  MaxL=1.
 Leave Link  303 at Sun Sep 13 22:11:19 2026, MaxMem=   805306368 cpu:               0.0 elap:               0.0
 (Enter /app1/ia32-64/Gaussian/Rev-C.02/g16/l308.exe)
 Leave Link  308 at Sun Sep 13 22:11:19 2026, MaxMem=   805306368 cpu:               0.0 elap:               0.0
 (Enter /app1/ia32-64/Gaussian/Rev-C.02/g16/l401.exe)
 Initial guess from the checkpoint file:  "ch2foh_tda.chk"
 B after Tr=    -0.000000    0.000000    0.000000
         Rot=    1.000000    0.000000   -0.000000   -0.000000 Ang=   0.00 deg.
 Guess basis will be translated and rotated to current coordinates.
 JPrj=2 DoOrth=T DoCkMO=T.
 Leave Link  401 at Sun Sep 13 22:11:19 2026, MaxMem=   805306368 cpu:               0.1 elap:               0.1
 (Enter /app1/ia32-64/Gaussian/Rev-C.02/g16/l502.exe)
 Keep R1 ints in memory in canonical form, NReq=40547587.
 FoFCou: FMM=F IPFlag=           0 FMFlag=           0 FMFlg1=           0
         NFxFlg=           0 DoJE=F BraDBF=F KetDBF=F FulRan=T
         wScrn=  0.000000 ICntrl=       600 IOpCl=  0 I1Cent=           0 NGrid=           0
         NMat0=    1 NMatS0=   8778 NMatT0=    0 NMatD0=    1 NMtDS0=    0 NMtDT0=    0
 Symmetry not used in FoFCou.
 Two-electron integral symmetry not used.
 Closed shell SCF:
 Using DIIS extrapolation, IDIIS=  1040.
 NGot=   805306368 LenX=   766727867 LenY=   766704926
 Requested convergence on RMS density matrix=1.00D-08 within 128 cycles.
 Requested convergence on MAX density matrix=1.00D-06.
 Requested convergence on             energy=1.00D-06.
 No special actions if energy rises.

 Cycle   1  Pass 1  IDiag  1:
 E= -215.057783780838    
 DIIS: error= 1.57D-08 at cycle   1 NSaved=   1.
 NSaved= 1 IEnMin= 1 EnMin= -215.057783780838     IErMin= 1 ErrMin= 1.57D-08
 ErrMax= 1.57D-08  0.00D+00 EMaxC= 1.00D-01 BMatC= 6.36D-14 BMatP= 6.36D-14
 IDIUse=1 WtCom= 1.00D+00 WtEn= 0.00D+00
 Coeff-Com:  0.100D+01
 Coeff:      0.100D+01
 Gap=     0.348 Goal=   None    Shift=    0.000
 RMSDP=2.53D-09 MaxDP=4.10D-08              OVMax= 9.87D-08

 SCF Done:  E(RB3LYP) =  -215.057783781     A.U. after    1 cycles
            NFock=  1  Conv=0.25D-08     -V/T= 2.0055
 KE= 2.138834610720D+02 PE=-6.668935101087D+02 EE= 1.589447543772D+02
 Leave Link  502 at Sun Sep 13 22:11:21 2026, MaxMem=   805306368 cpu:               2.1 elap:               2.2
 (Enter /app1/ia32-64/Gaussian/Rev-C.02/g16/l801.exe)
 DoSCS=F DFT=T ScalE2(SS,OS)=  1.000000  1.000000
 ExpMin= 1.03D-01 ExpMax= 1.95D+04 ExpMxC= 6.65D+02 IAcc=3 IRadAn=         5 AccDes= 0.00D+00
 HarFok:  IExCor=  205 AccDes= 0.00D+00 IRadAn=         5 IDoV=-2 UseB2=F ITyADJ=14
 ICtDFT= 12500011 ScaDFX=  1.000000  1.000000  1.000000  1.000000
 Largest valence mixing into a core orbital is  6.94D-05
 Largest core mixing into a valence orbital is  7.98D-06
 Range of M.O.s used for correlation:     4   132
 NBasis=   132 NAE=    13 NBE=    13 NFC=     3 NFV=     0
 NROrb=    129 NOA=    10 NOB=    10 NVA=   119 NVB=   119
 Leave Link  801 at Sun Sep 13 22:11:21 2026, MaxMem=   805306368 cpu:               0.1 elap:               0.2
 (Enter /app1/ia32-64/Gaussian/Rev-C.02/g16/l914.exe)
 RHF ground state
 Keep R1, R2, and R3 ints in memory in canonical form, NReq=120206889.
 FoFCou: FMM=F IPFlag=           0 FMFlag=           0 FMFlg1=           0
         NFxFlg=           0 DoJE=F BraDBF=F KetDBF=F FulRan=T
         wScrn=  0.000000 ICntrl=       600 IOpCl=  0 I1Cent=           0 NGrid=           0
         NMat0=    1 NMatS0=   8778 NMatT0=    0 NMatD0=    1 NMtDS0=    0 NMtDT0=    0
 Symmetry not used in FoFCou.
 Two-electron integral symmetry not used.
 MDV=   805306368 DFT=T DoStab=F Mixed=T DoRPA=F DoScal=F NonHer=F
 Making orbital integer symmetry assigments:
 Orbital symmetries:
       Occupied  (A) (A) (A) (A) (A) (A) (A) (A) (A) (A) (A) (A)
                 (A)
       Virtual   (A) (A) (A) (A) (A) (A) (A) (A) (A) (A) (A) (A)
                 (A) (A) (A) (A) (A) (A) (A) (A) (A) (A) (A) (A)
                 (A) (A) (A) (A) (A) (A) (A) (A) (A) (A) (A) (A)
                 (A) (A) (A) (A) (A) (A) (A) (A) (A) (A) (A) (A)
                 (A) (A) (A) (A) (A) (A) (A) (A) (A) (A) (A) (A)
                 (A) (A) (A) (A) (A) (A) (A) (A) (A) (A) (A) (A)
                 (A) (A) (A) (A) (A) (A) (A) (A) (A) (A) (A) (A)
                 (A) (A) (A) (A) (A) (A) (A) (A) (A) (A) (A) (A)
                 (A) (A) (A) (A) (A) (A) (A) (A) (A) (A) (A) (A)
                 (A) (A) (A) (A) (A) (A) (A) (A) (A) (A) (A)
    20 initial guesses have been made.
 Convergence on wavefunction:    0.001000000000000
 Davidson Disk Diagonalization:  ConvIn= 1.00D-03 SkipCon=T Conv= 1.00D-03.
 Max sub-space:  2000 roots to seek:    20 dimension of matrix:         2380
 Iteration     1 Dimension    20 NMult     0 NNew     20
 CISAX will form    20 AO SS matrices at one time.
 NMat=    20 NSing=    20 JSym2X= 0.
 Excitation Energies [eV] at current iteration:
 Root      1 :     8.133447132587072
 Root      2 :     8.940664888401027
 Root      3 :     9.470929998500475
 Root      4 :     9.975534168485643
 Root      5 :    10.123468920799100
 Root      6 :    10.503126294852777
 Root      7 :    10.627407164678919
 Root      8 :    10.932153242131802
 Root      9 :    11.078004795852317
 Root     10 :    11.223096129071211
 Root     11 :    11.760476424034692
 Root     12 :    11.876983759767144
 Root     13 :    12.045042406184306
 Root     14 :    12.212759678256980
 Root     15 :    12.436262600379523
 Root     16 :    12.915760706252936
 Root     17 :    13.046345268713454
 Root     18 :    13.210936480155256
 Root     19 :    13.661827082840265
 Root     20 :    14.259874032359535
 Iteration     2 Dimension    40 NMult    20 NNew     20
 CISAX will form    20 AO SS matrices at one time.
 NMat=    20 NSing=    20 JSym2X= 0.
 Root      1 not converged, maximum delta is    0.010109595336105
 Root      2 not converged, maximum delta is    0.017956078008611
 Root      3 not converged, maximum delta is    0.032476533933498
 Root      4 not converged, maximum delta is    0.021391040104217
 Root      5 not converged, maximum delta is    0.021386015841506
 Excitation Energies [eV] at current iteration:
 Root      1 :     8.096747903166650   Change is   -0.036699229420422
 Root      2 :     8.904932496781194   Change is   -0.035732391619832
 Root      3 :     9.432214510147354   Change is   -0.038715488353123
 Root      4 :     9.934604741273910   Change is   -0.040929427211732
 Root      5 :    10.098372463577791   Change is   -0.025096457221310
 Root      6 :    10.431528864146905   Change is   -0.071597430705872
 Root      7 :    10.517991783036093   Change is   -0.109415381642825
 Root      8 :    10.876542380132902   Change is   -0.055610861998899
 Root      9 :    11.029980194072891   Change is   -0.048024601779426
 Root     10 :    11.083650378344624   Change is   -0.139445750726587
 Root     11 :    11.356969993658129   Change is   -0.403506430376563
 Root     12 :    11.798896439511756   Change is   -0.078087320255388
 Root     13 :    11.995127804374603   Change is   -0.049914601809705
 Root     14 :    12.048067663265881   Change is   -0.164692014991099
 Root     15 :    12.250151957798650   Change is   -0.186110642580874
 Root     16 :    12.857020411687184   Change is   -0.058740294565751
 Root     17 :    12.912211780768722   Change is   -0.134133487944731
 Root     18 :    13.135771349573396   Change is   -0.075165130581861
 Root     19 :    13.305215547099360   Change is   -0.954658485260175
 Root     20 :    13.546822382193138   Change is   -0.115004700647127
 Iteration     3 Dimension    45 NMult    40 NNew      5
 CISAX will form     5 AO SS matrices at one time.
 NMat=     5 NSing=     5 JSym2X= 0.
 Root      1 not converged, maximum delta is    0.001877301912158
 Root      2 not converged, maximum delta is    0.001889108493301
 Root      3 not converged, maximum delta is    0.002682804239344
 Root      4 not converged, maximum delta is    0.003098652206343
 Root      5 not converged, maximum delta is    0.001865208831209
 Excitation Energies [eV] at current iteration:
 Root      1 :     8.096169881866766   Change is   -0.000578021299883
 Root      2 :     8.904082295954616   Change is   -0.000850200826578
 Root      3 :     9.431331760747602   Change is   -0.000882749399751
 Root      4 :     9.932998426024774   Change is   -0.001606315249137
 Root      5 :    10.097987295993700   Change is   -0.000385167584090
 Iteration     4 Dimension    50 NMult    45 NNew      5
 CISAX will form     5 AO SS matrices at one time.
 NMat=     5 NSing=     5 JSym2X= 0.
 Root      1 has converged.
 Root      2 has converged.
 Root      3 has converged.
 Root      4 has converged.
 Root      5 has converged.
 Excitation Energies [eV] at current iteration:
 Root      1 :     8.096165925693644   Change is   -0.000003956173122
 Root      2 :     8.904073937206418   Change is   -0.000008358748199
 Root      3 :     9.431321949916319   Change is   -0.000009810831283
 Root      4 :     9.932984105055349   Change is   -0.000014320969426
 Root      5 :    10.097982918929645   Change is   -0.000004377064056
 Convergence achieved on expansion vectors.
 ***********************************************************************
 Excited states from <AA,BB:AA,BB> singles matrix:
 ***********************************************************************
 
 1PDM for each excited state written to RWF  633
 Ground to excited state transition densities written to RWF  633
 Ground to excited state transition electric dipole moments (Au):
       state          X           Y           Z        Dip. S.      Osc.
         1        -0.2046      0.0240     -0.0363      0.0438      0.0087
         2         0.0939     -0.2495     -0.1326      0.0887      0.0193
         3        -0.1359     -0.0358     -0.4215      0.1974      0.0456
         4         0.1668      0.1005      0.1465      0.0594      0.0144
         5         0.1386      0.2215     -0.4105      0.2368      0.0586
 Ground to excited state transition velocity dipole moments (Au):
       state          X           Y           Z        Dip. S.      Osc.
         1         0.0749     -0.0388     -0.0173      0.0074      0.0166
         2        -0.0477      0.0752      0.0349      0.0092      0.0186
         3         0.0265      0.0282      0.1287      0.0181      0.0347
         4        -0.0463     -0.0450     -0.0581      0.0075      0.0138
         5        -0.0264     -0.0786      0.1097      0.0189      0.0339
 Ground to excited state transition magnetic dipole moments (Au):
       state          X           Y           Z
         1         0.5384     -0.3487      0.2929
         2         0.6097     -0.2436     -0.3845
         3         0.2504      0.2053      0.0590
         4        -0.1080     -0.1952     -0.1642
         5         0.3486      0.3983     -0.0591
 Ground to excited state transition velocity quadrupole moments (Au):
       state          XX          YY          ZZ          XY          XZ          YZ
         1        -0.3356      0.2163      0.0604      0.1310      0.2434      0.2126
         2         0.2454     -0.1528      0.0928     -0.1372      0.0322      0.3694
         3         0.0319     -0.0952      0.1706      0.0298     -0.0764      0.3088
         4         0.1446      0.1171     -0.0196      0.0638      0.1457     -0.0899
         5        -0.1065     -0.0044      0.0267      0.0106     -0.0395      0.3164
 <0|del|b> * <b|rxdel|0> + <0|del|b> * <b|delr+rdel|0>
 Rotatory Strengths (R) in cgs (10**-40 erg-esu-cm/Gauss)
       state          XX          YY          ZZ    R(velocity)    E-M Angle
         1        18.6065     63.5008     33.8555     38.6542       36.54
         2       -42.1014    -59.8099    -29.5694    -43.8269      146.70
         3        19.7775     18.9740      2.1327     13.6281       63.06
         4        20.4967     21.7201      2.9680     15.0616       14.23
         5       -37.8382    -23.9862    -27.6654    -29.8299      129.91
 1/2[<0|r|b>*<b|rxdel|0> + (<0|rxdel|b>*<b|r|0>)*]
 Rotatory Strengths (R) in cgs (10**-40 erg-esu-cm/Gauss)
       state          XX          YY          ZZ     R(length)
         1        77.9070      5.9134      7.5169     30.4458
         2       -40.4831    -42.9865    -36.0546    -39.8414
         3        24.0703      5.1989     17.5959     15.6217
         4        12.7382     13.8733     17.0074     14.5397
         5       -34.1630    -62.4023    -17.1582    -37.9078
  1/2[<0|del|b>*<b|r|0> + (<0|r|b>*<b|del|0>)*] (Au)
       state          X           Y           Z        Dip. S.   Osc.(frdel)
         1        -0.0153     -0.0009      0.0006      0.0156      0.0104
         2        -0.0045     -0.0188     -0.0046      0.0279      0.0186
         3        -0.0036     -0.0010     -0.0542      0.0589      0.0392
         4        -0.0077     -0.0045     -0.0085      0.0208      0.0138
         5        -0.0037     -0.0174     -0.0450      0.0661      0.0441

 Excitation energies and oscillator strengths:
 
 Excited State   1:      Singlet-A      8.0962 eV  153.14 nm  f=0.0087  <S**2>=0.000
      13 -> 14         0.69708
 This state for optimization and/or second-order correction.
 Total Energy, E(CIS/TDA) =  -214.760255158    
 Copying the excited state density for this state as the 1-particle RhoCI density.
 
 Excited State   2:      Singlet-A      8.9041 eV  139.24 nm  f=0.0193  <S**2>=0.000
      12 -> 14         0.69083
 
 Excited State   3:      Singlet-A      9.4313 eV  131.46 nm  f=0.0456  <S**2>=0.000
      12 -> 14        -0.10064
      13 -> 15         0.69365
 
 Excited State   4:      Singlet-A      9.9330 eV  124.82 nm  f=0.0144  <S**2>=0.000
      11 -> 14         0.67508
      12 -> 15        -0.12445
 
 Excited State   5:      Singlet-A     10.0980 eV  122.78 nm  f=0.0586  <S**2>=0.000
      11 -> 14         0.12290
      12 -> 15         0.68672
 SavETr:  write IOETrn=   770 NScale= 10 NData=  16 NLR=1 NState=    5 LETran=     100.
 Leave Link  914 at Sun Sep 13 22:12:10 2026, MaxMem=   805306368 cpu:              48.2 elap:              48.8
 (Enter /app1/ia32-64/Gaussian/Rev-C.02/g16/l601.exe)
 Copying SCF densities to generalized density rwf, IOpCl= 0 IROHF=0.

 **********************************************************************

            Population analysis using the SCF Density.

 **********************************************************************

 Orbital symmetries:
       Occupied  (A) (A) (A) (A) (A) (A) (A) (A) (A) (A) (A) (A)
                 (A)
       Virtual   (A) (A) (A) (A) (A) (A) (A) (A) (A) (A) (A) (A)
                 (A) (A) (A) (A) (A) (A) (A) (A) (A) (A) (A) (A)
                 (A) (A) (A) (A) (A) (A) (A) (A) (A) (A) (A) (A)
                 (A) (A) (A) (A) (A) (A) (A) (A) (A) (A) (A) (A)
                 (A) (A) (A) (A) (A) (A) (A) (A) (A) (A) (A) (A)
                 (A) (A) (A) (A) (A) (A) (A) (A) (A) (A) (A) (A)
                 (A) (A) (A) (A) (A) (A) (A) (A) (A) (A) (A) (A)
                 (A) (A) (A) (A) (A) (A) (A) (A) (A) (A) (A) (A)
                 (A) (A) (A) (A) (A) (A) (A) (A) (A) (A) (A) (A)
                 (A) (A) (A) (A) (A) (A) (A) (A) (A) (A) (A)
 The electronic state is 1-A.
 Alpha  occ. eigenvalues --  -24.66588 -19.15652 -10.30144  -1.20022  -1.05537
 Alpha  occ. eigenvalues --   -0.69663  -0.56118  -0.51351  -0.50363  -0.41702
 Alpha  occ. eigenvalues --   -0.38158  -0.34842  -0.32354
 Alpha virt. eigenvalues --    0.02455   0.06425   0.09970   0.11248   0.18085
 Alpha virt. eigenvalues --    0.30621   0.31754   0.32986   0.36493   0.40849
 Alpha virt. eigenvalues --    0.43850   0.44984   0.50578   0.56787   0.60637
 Alpha virt. eigenvalues --    0.63485   0.69396   0.70773   0.74247   0.82374
 Alpha virt. eigenvalues --    0.88178   0.91182   0.99886   1.02843   1.04111
 Alpha virt. eigenvalues --    1.07034   1.09784   1.20119   1.21173   1.28561
 Alpha virt. eigenvalues --    1.30865   1.33497   1.43435   1.61100   1.74970
 Alpha virt. eigenvalues --    1.79898   1.82876   1.91928   2.02657   2.03250
 Alpha virt. eigenvalues --    2.14254   2.16816   2.23838   2.25334   2.34059
 Alpha virt. eigenvalues --    2.38782   2.47764   2.65000   2.71804   2.79766
 Alpha virt. eigenvalues --    2.87699   2.91532   2.93220   2.98573   3.00986
 Alpha virt. eigenvalues --    3.10514   3.12665   3.20412   3.26131   3.28195
 Alpha virt. eigenvalues --    3.32951   3.40241   3.43356   3.46421   3.47269
 Alpha virt. eigenvalues --    3.56597   3.64006   3.69957   3.74675   3.79681
 Alpha virt. eigenvalues --    3.87072   3.91488   3.97081   3.99674   4.04945
 Alpha virt. eigenvalues --    4.11035   4.15068   4.22664   4.42318   4.57723
 Alpha virt. eigenvalues --    4.62291   4.74415   4.77528   4.80879   4.88281
 Alpha virt. eigenvalues --    4.94906   4.99478   5.02618   5.12722   5.27694
 Alpha virt. eigenvalues --    5.50761   5.68633   5.73462   5.87140   5.90227
 Alpha virt. eigenvalues --    6.14485   6.43861   6.60510   6.65117   6.67316
 Alpha virt. eigenvalues --    6.75107   6.85311   6.89355   6.93267   7.03466
 Alpha virt. eigenvalues --    7.04445   7.06759   7.26712   7.29452   7.33837
 Alpha virt. eigenvalues --    7.41213   8.37610   8.38445   8.81395   8.83777
 Alpha virt. eigenvalues --    8.98911  11.00890  11.48244  12.42918
          Condensed to atoms (all electrons):
               1          2          3          4          5          6
     1  C    4.276341   0.338973   0.408153   0.389050   0.371284  -0.036714
     2  F    0.338973   9.065821  -0.059793  -0.055178  -0.046297   0.003519
     3  O    0.408153  -0.059793   7.716152  -0.054300  -0.038644   0.330177
     4  H    0.389050  -0.055178  -0.054300   0.804014  -0.091762  -0.019617
     5  H    0.371284  -0.046297  -0.038644  -0.091762   0.730604   0.013150
     6  H   -0.036714   0.003519   0.330177  -0.019617   0.013150   0.503067
 Mulliken charges:
               1
     1  C    0.252913
     2  F   -0.247045
     3  O   -0.301744
     4  H    0.027792
     5  H    0.061665
     6  H    0.206418
 Sum of Mulliken charges =  -0.00000
 Mulliken charges with hydrogens summed into heavy atoms:
               1
     1  C    0.342371
     2  F   -0.247045
     3  O   -0.095326
 Electronic spatial extent (au):  <R**2>=            152.2670
 Charge=             -0.0000 electrons
 Dipole moment (field-independent basis, Debye):
    X=             -0.8045    Y=              0.7651    Z=              1.4401  Tot=              1.8184
 Quadrupole moment (field-independent basis, Debye-Ang):
   XX=            -19.8907   YY=            -15.7831   ZZ=            -15.9623
   XY=              1.7101   XZ=             -1.9420   YZ=             -1.3679
 Traceless Quadrupole moment (field-independent basis, Debye-Ang):
   XX=             -2.6787   YY=              1.4290   ZZ=              1.2497
   XY=              1.7101   XZ=             -1.9420   YZ=             -1.3679
 Octapole moment (field-independent basis, Debye-Ang**2):
  XXX=              2.4466  YYY=             -3.1666  ZZZ=              0.7893  XYY=             -0.1242
  XXY=             -2.6545  XXZ=              2.5863  XZZ=              0.1940  YZZ=             -0.8504
  YYZ=              0.6566  XYZ=              1.5879
 Hexadecapole moment (field-independent basis, Debye-Ang**3):
 XXXX=           -103.6183 YYYY=            -37.6045 ZZZZ=            -21.7598 XXXY=              2.3532
 XXXZ=             -4.1410 YYYX=              0.3267 YYYZ=             -1.8074 ZZZX=             -1.6264
 ZZZY=             -1.1930 XXYY=            -21.3606 XXZZ=            -19.6173 YYZZ=             -8.8083
 XXYZ=             -2.1739 YYXZ=             -1.4172 ZZXY=              0.6656
 N-N= 7.900751087866D+01 E-N=-6.668935046037D+02  KE= 2.138834610720D+02
 Leave Link  601 at Sun Sep 13 22:12:10 2026, MaxMem=   805306368 cpu:               0.0 elap:               0.0
 (Enter /app1/ia32-64/Gaussian/Rev-C.02/g16/l9999.exe)
 Electronic transition elements 
                 1             2             3             4             5 
      1  -0.214760D+03 -0.214731D+03 -0.214711D+03 -0.214693D+03 -0.214687D+03
      2   0.118824D+00  0.141049D+00  0.160743D+00 -0.199808D+00 -0.212472D+00
      3   0.305387D-01  0.108433D+00  0.409439D+00 -0.128027D+00  0.437246D+00
      4  -0.169440D+00  0.238753D+00 -0.628693D-01  0.553537D-01 -0.221009D-01
      5  -0.175707D-01 -0.293594D-01 -0.523722D-01  0.702057D-01  0.644095D-01
      6   0.159600D-01 -0.284376D-01 -0.123712D+00  0.510551D-01 -0.118482D+00
      7   0.827773D-01 -0.864938D-01 -0.342773D-02 -0.360250D-02  0.265797D-01
      8  -0.119052D+00 -0.171387D+00 -0.323565D+00  0.234732D+00 -0.519802D+00
      9  -0.307339D+00  0.379747D+00 -0.264990D-01  0.137688D+00  0.115619D+00
     10   0.623393D+00  0.636709D+00  0.542566D-01  0.514470D-01  0.820540D-02
     11   0.178180D+00 -0.514859D-01  0.300517D-01  0.195367D+00  0.898755D-02
     12  -0.210706D-02  0.704854D-02  0.107134D+00 -0.929485D-02 -0.386630D-01
     13  -0.234940D+00  0.229814D+00 -0.299686D-01  0.561281D-01 -0.545684D-01
     14   0.296866D+00  0.322264D+00  0.200447D+00  0.553264D-02  0.212393D+00
     15   0.259857D+00 -0.139520D+00 -0.306479D-01 -0.408034D-01  0.829201D-01
     16  -0.631832D-01  0.226560D+00  0.271920D+00 -0.168771D+00  0.231417D+00
 Unable to Open any file for archive entry.
 1\1\GINC-CNODE-33-43-49\SP\RB3LYP TDA-FC\CC-pVTZ\C1H3F1O1\ZHANGXUBO\13
 -Sep-2026\0\\#p tda(nstates=5) b3lyp/cc-pVTZ geom=check guess=read int
 =ultrafine\\CFH2-OH first 5 excited states / TD-DFT + Tamm-Dancoff (TD
 A) B3LYP/cc-pVTZ\\0,1\C,0,0.0179248405,-0.008177598,0.0046396175\F,0,-
 0.0864350264,0.0188280577,1.3922717302\O,0,1.3359007369,0.0323495411,-
 0.3955894251\H,0,-0.4990395904,-0.9143453299,-0.32277035\H,0,-0.465073
 257,0.8877950102,-0.3810287388\H,0,1.7586209671,-0.8071432205,-0.18588
 20945\\Version=ES64L-G16RevC.02\State=1-A\HF=-215.0577838\RMSD=2.530e-
 09\PG=C01 [X(C1H3F1O1)]\\@
 The archive entry for this job was punched.


 GOD GAVE US TWO ENDS... ONE TO SIT ON...    
 AND THE OTHER TO THINK WITH...              
 YOUR SUCCESS DEPENDS UPON WHICH END YOU     
 USE THE MOST...                             
                                             
 IT'S A CASE OF HEADS YOU WIN TAILS YOU LOSE.
          SOURCE UNKNOWN(IT'S JUST AS WELL.) 
 Job cpu time:       0 days  0 hours  0 minutes 51.3 seconds.
 Elapsed time:       0 days  0 hours  0 minutes 52.0 seconds.
 File lengths (MBytes):  RWF=     87 Int=      0 D2E=      0 Chk=     34 Scr=      1
 Normal termination of Gaussian 16 at Sun Sep 13 22:12:11 2026.
 Initial command:
 /app1/ia32-64/Gaussian/Rev-C.02/g16/l1.exe "/scratch/1005639.venus01/Gau-64749.inp" -scrdir="/scratch/1005639.venus01/"
 Entering Link 1 = /app1/ia32-64/Gaussian/Rev-C.02/g16/l1.exe PID=     67025.
  
 Copyright (c) 1988-2021, Gaussian, Inc.  All Rights Reserved.
  
 This is part of the Gaussian(R) 16 program.  It is based on
 the Gaussian(R) 09 system (copyright 2009, Gaussian, Inc.),
 the Gaussian(R) 03 system (copyright 2003, Gaussian, Inc.),
 the Gaussian(R) 98 system (copyright 1998, Gaussian, Inc.),
 the Gaussian(R) 94 system (copyright 1995, Gaussian, Inc.),
 the Gaussian 92(TM) system (copyright 1992, Gaussian, Inc.),
 the Gaussian 90(TM) system (copyright 1990, Gaussian, Inc.),
 the Gaussian 88(TM) system (copyright 1988, Gaussian, Inc.),
 the Gaussian 86(TM) system (copyright 1986, Carnegie Mellon
 University), and the Gaussian 82(TM) system (copyright 1983,
 Carnegie Mellon University). Gaussian is a federally registered
 trademark of Gaussian, Inc.
  
 This software contains proprietary and confidential information,
 including trade secrets, belonging to Gaussian, Inc.
  
 This software is provided under written license and may be
 used, copied, transmitted, or stored only in accord with that
 written license.
  
 The following legend is applicable only to US Government
 contracts under FAR:
  
                    RESTRICTED RIGHTS LEGEND
  
 Use, reproduction and disclosure by the US Government is
 subject to restrictions as set forth in subparagraphs (a)
 and (c) of the Commercial Computer Software - Restricted
 Rights clause in FAR 52.227-19.
  
 Gaussian, Inc.
 340 Quinnipiac St., Bldg. 40, Wallingford CT 06492
  
  
 ---------------------------------------------------------------
 Warning -- This program may not be used in any manner that
 competes with the business of Gaussian, Inc. or will provide
 assistance to any competitor of Gaussian, Inc.  The licensee
 of this program is prohibited from giving any competitor of
 Gaussian, Inc. access to this program.  By using this program,
 the user acknowledges that Gaussian, Inc. is engaged in the
 business of creating and licensing software in the field of
 computational chemistry and represents and warrants to the
 licensee that it is not a competitor of Gaussian, Inc. and that
 it will not use this program in any manner prohibited above.
 ---------------------------------------------------------------
  

 Cite this work as:
 Gaussian 16, Revision C.02,
 M. J. Frisch, G. W. Trucks, H. B. Schlegel, G. E. Scuseria, 
 M. A. Robb, J. R. Cheeseman, G. Scalmani, V. Barone, 
 G. A. Petersson, H. Nakatsuji, X. Li, M. Caricato, A. V. Marenich, 
 J. Bloino, B. G. Janesko, R. Gomperts, B. Mennucci, H. P. Hratchian, 
 J. V. Ortiz, A. F. Izmaylov, J. L. Sonnenberg, D. Williams-Young, 
 F. Ding, F. Lipparini, F. Egidi, J. Goings, B. Peng, A. Petrone, 
 T. Henderson, D. Ranasinghe, V. G. Zakrzewski, J. Gao, N. Rega, 
 G. Zheng, W. Liang, M. Hada, M. Ehara, K. Toyota, R. Fukuda, 
 J. Hasegawa, M. Ishida, T. Nakajima, Y. Honda, O. Kitao, H. Nakai, 
 T. Vreven, K. Throssell, J. A. Montgomery, Jr., J. E. Peralta, 
 F. Ogliaro, M. J. Bearpark, J. J. Heyd, E. N. Brothers, K. N. Kudin, 
 V. N. Staroverov, T. A. Keith, R. Kobayashi, J. Normand, 
 K. Raghavachari, A. P. Rendell, J. C. Burant, S. S. Iyengar, 
 J. Tomasi, M. Cossi, J. M. Millam, M. Klene, C. Adamo, R. Cammi, 
 J. W. Ochterski, R. L. Martin, K. Morokuma, O. Farkas, 
 J. B. Foresman, and D. J. Fox, Gaussian, Inc., Wallingford CT, 2019.
 
 ******************************************
 Gaussian 16:  ES64L-G16RevC.02  7-Dec-2021
                13-Sep-2026 
 ******************************************
 %oldchk=ch2foh.chk
 %chk=ch2foh_cis.chk
 %mem=6GB
 %nprocshared=1
 Will use up to    1 processors via shared memory.
 Copying data from "ch2foh.chk" to current chk file "ch2foh_cis.chk"
 IOpt=  2 FromEx=T IUOpen= 4 IOptOp= 5 NList=   0 IFRang= 0 IUIn= 4 IUOut= 2.
 -----------------------------------------------
 #p cis(nstates=5)/cc-pVTZ geom=check guess=read
 -----------------------------------------------
 1/29=2,38=1,172=1/1;
 2/12=2,40=1/2;
 3/5=16,6=1,11=9,14=-4,25=1,30=1,116=-2/1,2,3,8;
 4/5=1/1;
 5/5=2,38=6/2;
 8/6=1,10=1,108=5/1;
 9/41=5,42=1/14;
 6/7=2,8=2,9=2,10=2/1;
 99/5=1,9=1/99;
 Leave Link    1 at Sun Sep 13 22:12:11 2026, MaxMem=   805306368 cpu:               0.0 elap:               0.1
 (Enter /app1/ia32-64/Gaussian/Rev-C.02/g16/l101.exe)
 --------------------------------------------
 CFH2-OH first 5 excited states / CIS/cc-pVTZ
 --------------------------------------------
 Structure from the checkpoint file:  "ch2foh_cis.chk"
 Charge =  0 Multiplicity = 1
 Redundant internal coordinates found in file.  (old form).
 C,0,0.0179248405,-0.008177598,0.0046396175
 F,0,-0.0864350264,0.0188280577,1.3922717302
 O,0,1.3359007369,0.0323495411,-0.3955894251
 H,0,-0.4990395904,-0.9143453299,-0.32277035
 H,0,-0.465073257,0.8877950102,-0.3810287388
 H,0,1.7586209671,-0.8071432205,-0.1858820945
 Recover connectivity data from disk.
 ITRead=  0  0  0  0  0  0
 MicOpt= -1 -1 -1 -1 -1 -1
                           ----------------------------
                           !    Current Parameters    !
                           ! (Angstroms and Degrees)  !
 --------------------------                            --------------------------
 ! Name  Definition              Value                                          !
 --------------------------------------------------------------------------------
 ! R1    R(1,2)                  1.3918                                         !
 ! R2    R(1,3)                  1.378                                          !
 ! R3    R(1,4)                  1.0934                                         !
 ! R4    R(1,5)                  1.0885                                         !
 ! R5    R(3,6)                  0.963                                          !
 ! A1    A(2,1,3)              111.144                                          !
 ! A2    A(2,1,4)              106.2103                                         !
 ! A3    A(2,1,5)              107.6986                                         !
 ! A4    A(3,1,4)              112.9297                                         !
 ! A5    A(3,1,5)              107.2949                                         !
 ! A6    A(4,1,5)              111.4863                                         !
 ! A7    A(1,3,6)              109.3262                                         !
 ! D1    D(2,1,3,6)             70.9921                                         !
 ! D2    D(4,1,3,6)            -48.2567                                         !
 ! D3    D(5,1,3,6)           -171.5039                                         !
 --------------------------------------------------------------------------------
 NAtoms=      6 NQM=        6 NQMF=       0 NMMI=      0 NMMIF=      0
                NMic=       0 NMicF=      0.
                    Isotopes and Nuclear Properties:
 (Nuclear quadrupole moments (NQMom) in fm**2, nuclear magnetic moments (NMagM)
  in nuclear magnetons)

  Atom         1           2           3           4           5           6
 IAtWgt=          12          19          16           1           1           1
 AtmWgt=  12.0000000  18.9984032  15.9949146   1.0078250   1.0078250   1.0078250
 NucSpn=           0           1           0           1           1           1
 AtZEff=   3.6000000   6.7500000   5.6000000   1.0000000   1.0000000   1.0000000
 NQMom=    0.0000000   0.0000000   0.0000000   0.0000000   0.0000000   0.0000000
 NMagM=    0.0000000   2.6288670   0.0000000   2.7928460   2.7928460   2.7928460
 AtZNuc=   6.0000000   9.0000000   8.0000000   1.0000000   1.0000000   1.0000000
 Leave Link  101 at Sun Sep 13 22:12:11 2026, MaxMem=   805306368 cpu:               0.2 elap:               0.2
 (Enter /app1/ia32-64/Gaussian/Rev-C.02/g16/l202.exe)
                          Input orientation:                          
 ---------------------------------------------------------------------
 Center     Atomic      Atomic             Coordinates (Angstroms)
 Number     Number       Type             X           Y           Z
 ---------------------------------------------------------------------
      1          6           0        0.017925   -0.008178    0.004640
      2          9           0       -0.086435    0.018828    1.392272
      3          8           0        1.335901    0.032350   -0.395589
      4          1           0       -0.499040   -0.914345   -0.322770
      5          1           0       -0.465073    0.887795   -0.381029
      6          1           0        1.758621   -0.807143   -0.185882
 ---------------------------------------------------------------------
                    Distance matrix (angstroms):
                    1          2          3          4          5
     1  C    0.000000
     2  F    1.391813   0.000000
     3  O    1.378001   2.284660   0.000000
     4  H    1.093430   1.995601   2.066044   0.000000
     5  H    1.088483   2.010737   1.993867   1.803402   0.000000
     6  H    1.924751   2.564572   0.963025   2.264346   2.802805
                    6
     6  H    0.000000
 Stoichiometry    CH3FO
 Framework group  C1[X(CH3FO)]
 Deg. of freedom    12
 Full point group                 C1      NOp   1
 RotChk:  IX=0 Diff= 1.22D-15
 Largest Abelian subgroup         C1      NOp   1
 Largest concise Abelian subgroup C1      NOp   1
                         Standard orientation:                         
 ---------------------------------------------------------------------
 Center     Atomic      Atomic             Coordinates (Angstroms)
 Number     Number       Type             X           Y           Z
 ---------------------------------------------------------------------
      1          6           0        0.014141    0.509888    0.046741
      2          9           0        1.136386   -0.310210   -0.025020
      3          8           0       -1.144432   -0.217407   -0.119493
      4          1           0        0.065600    1.013543    1.015902
      5          1           0        0.070704    1.220839   -0.775538
      6          1           0       -1.293166   -0.762568    0.660312
 ---------------------------------------------------------------------
 Rotational constants (GHZ):          45.8036900          10.2232730           9.0433890
 Leave Link  202 at Sun Sep 13 22:12:11 2026, MaxMem=   805306368 cpu:               0.0 elap:               0.0
 (Enter /app1/ia32-64/Gaussian/Rev-C.02/g16/l301.exe)
 Standard basis: CC-pVTZ (5D, 7F)
 Ernie: Thresh=  0.10000D-02 Tol=  0.10000D-05 Strict=F.
 Ernie:  9 primitive shells out of 102 were deleted.
 There are   150 symmetry adapted cartesian basis functions of A   symmetry.
 There are   132 symmetry adapted basis functions of A   symmetry.
   132 basis functions,   207 primitive gaussians,   150 cartesian basis functions
    13 alpha electrons       13 beta electrons
       nuclear repulsion energy        79.0075108787 Hartrees.
 IExCor=    0 DFT=F Ex=HF Corr=None ExCW=0 ScaHFX=  1.000000
 ScaDFX=  1.000000  1.000000  1.000000  1.000000 ScalE2=  1.000000  1.000000
 IRadAn=      5 IRanWt=     -1 IRanGd=            0 ICorTp=0 IEmpDi=  4
 NAtoms=    6 NActive=    6 NUniq=    6 SFac= 1.00D+00 NAtFMM=   60 NAOKFM=F Big=F
 Integral buffers will be    131072 words long.
 Raffenetti 1 integral format.
 Two-electron integral symmetry is turned on.
 Leave Link  301 at Sun Sep 13 22:12:12 2026, MaxMem=   805306368 cpu:               0.0 elap:               0.0
 (Enter /app1/ia32-64/Gaussian/Rev-C.02/g16/l302.exe)
 NPDir=0 NMtPBC=     1 NCelOv=     1 NCel=       1 NClECP=     1 NCelD=      1
         NCelK=      1 NCelE2=     1 NClLst=     1 CellRange=     0.0.
 One-electron integrals computed using PRISM.
 One-electron integral symmetry used in STVInt
 NBasis=   132 RedAO= T EigKep=  1.90D-03  NBF=   132
 NBsUse=   132 1.00D-06 EigRej= -1.00D+00 NBFU=   132
 Leave Link  302 at Sun Sep 13 22:12:12 2026, MaxMem=   805306368 cpu:               0.1 elap:               0.1
 (Enter /app1/ia32-64/Gaussian/Rev-C.02/g16/l303.exe)
 DipDrv:  MaxL=1.
 Leave Link  303 at Sun Sep 13 22:12:12 2026, MaxMem=   805306368 cpu:               0.0 elap:               0.1
 (Enter /app1/ia32-64/Gaussian/Rev-C.02/g16/l308.exe)
 Leave Link  308 at Sun Sep 13 22:12:12 2026, MaxMem=   805306368 cpu:               0.0 elap:               0.0
 (Enter /app1/ia32-64/Gaussian/Rev-C.02/g16/l401.exe)
 Initial guess from the checkpoint file:  "ch2foh_cis.chk"
 B after Tr=    -0.000000    0.000000    0.000000
         Rot=    1.000000    0.000000   -0.000000   -0.000000 Ang=   0.00 deg.
 Guess basis will be translated and rotated to current coordinates.
 JPrj=2 DoOrth=T DoCkMO=T.
 Leave Link  401 at Sun Sep 13 22:12:12 2026, MaxMem=   805306368 cpu:               0.1 elap:               0.1
 (Enter /app1/ia32-64/Gaussian/Rev-C.02/g16/l502.exe)
 Keep R1 ints in memory in canonical form, NReq=40547587.
 FoFCou: FMM=F IPFlag=           0 FMFlag=           0 FMFlg1=           0
         NFxFlg=           0 DoJE=F BraDBF=F KetDBF=F FulRan=T
         wScrn=  0.000000 ICntrl=       600 IOpCl=  0 I1Cent=           0 NGrid=           0
         NMat0=    1 NMatS0=   8778 NMatT0=    0 NMatD0=    1 NMtDS0=    0 NMtDT0=    0
 Symmetry not used in FoFCou.
 Two-electron integral symmetry not used.
 Closed shell SCF:
 Using DIIS extrapolation, IDIIS=  1040.
 NGot=   805306368 LenX=   766727867 LenY=   766704926
 Requested convergence on RMS density matrix=1.00D-08 within 128 cycles.
 Requested convergence on MAX density matrix=1.00D-06.
 Requested convergence on             energy=1.00D-06.
 No special actions if energy rises.

 Cycle   1  Pass 1  IDiag  1:
 E= -213.966375578126    
 DIIS: error= 1.34D-02 at cycle   1 NSaved=   1.
 NSaved= 1 IEnMin= 1 EnMin= -213.966375578126     IErMin= 1 ErrMin= 1.34D-02
 ErrMax= 1.34D-02  0.00D+00 EMaxC= 1.00D-01 BMatC= 6.54D-02 BMatP= 6.54D-02
 IDIUse=3 WtCom= 8.66D-01 WtEn= 1.34D-01
 Coeff-Com:  0.100D+01
 Coeff-En:   0.100D+01
 Coeff:      0.100D+01
 Gap=     0.645 Goal=   None    Shift=    0.000
 GapD=    0.645 DampG=2.000 DampE=0.500 DampFc=1.0000 IDamp=-1.
 RMSDP=9.80D-04 MaxDP=1.70D-02              OVMax= 2.99D-02

 Cycle   2  Pass 1  IDiag  1:
 E= -213.991383832386     Delta-E=       -0.025008254260 Rises=F Damp=F
 DIIS: error= 2.59D-03 at cycle   2 NSaved=   2.
 NSaved= 2 IEnMin= 2 EnMin= -213.991383832386     IErMin= 2 ErrMin= 2.59D-03
 ErrMax= 2.59D-03  0.00D+00 EMaxC= 1.00D-01 BMatC= 1.15D-03 BMatP= 6.54D-02
 IDIUse=3 WtCom= 9.74D-01 WtEn= 2.59D-02
 Coeff-Com: -0.644D-01 0.106D+01
 Coeff-En:   0.000D+00 0.100D+01
 Coeff:     -0.628D-01 0.106D+01
 Gap=     0.639 Goal=   None    Shift=    0.000
 RMSDP=2.70D-04 MaxDP=4.33D-03 DE=-2.50D-02 OVMax= 9.57D-03

 Cycle   3  Pass 1  IDiag  1:
 E= -213.992243696291     Delta-E=       -0.000859863905 Rises=F Damp=F
 DIIS: error= 8.64D-04 at cycle   3 NSaved=   3.
 NSaved= 3 IEnMin= 3 EnMin= -213.992243696291     IErMin= 3 ErrMin= 8.64D-04
 ErrMax= 8.64D-04  0.00D+00 EMaxC= 1.00D-01 BMatC= 1.32D-04 BMatP= 1.15D-03
 IDIUse=3 WtCom= 9.91D-01 WtEn= 8.64D-03
 Coeff-Com: -0.264D-01 0.243D+00 0.783D+00
 Coeff-En:   0.000D+00 0.000D+00 0.100D+01
 Coeff:     -0.261D-01 0.241D+00 0.785D+00
 Gap=     0.634 Goal=   None    Shift=    0.000
 RMSDP=5.14D-05 MaxDP=1.27D-03 DE=-8.60D-04 OVMax= 2.67D-03

 Cycle   4  Pass 1  IDiag  1:
 E= -213.992356966034     Delta-E=       -0.000113269743 Rises=F Damp=F
 DIIS: error= 2.24D-04 at cycle   4 NSaved=   4.
 NSaved= 4 IEnMin= 4 EnMin= -213.992356966034     IErMin= 4 ErrMin= 2.24D-04
 ErrMax= 2.24D-04  0.00D+00 EMaxC= 1.00D-01 BMatC= 8.78D-06 BMatP= 1.32D-04
 IDIUse=3 WtCom= 9.98D-01 WtEn= 2.24D-03
 Coeff-Com:  0.625D-04-0.339D-01 0.853D-01 0.949D+00
 Coeff-En:   0.000D+00 0.000D+00 0.000D+00 0.100D+01
 Coeff:      0.624D-04-0.338D-01 0.851D-01 0.949D+00
 Gap=     0.635 Goal=   None    Shift=    0.000
 RMSDP=2.00D-05 MaxDP=2.85D-04 DE=-1.13D-04 OVMax= 1.19D-03

 Cycle   5  Pass 1  IDiag  1:
 E= -213.992366892018     Delta-E=       -0.000009925984 Rises=F Damp=F
 DIIS: error= 6.69D-05 at cycle   5 NSaved=   5.
 NSaved= 5 IEnMin= 5 EnMin= -213.992366892018     IErMin= 5 ErrMin= 6.69D-05
 ErrMax= 6.69D-05  0.00D+00 EMaxC= 1.00D-01 BMatC= 1.18D-06 BMatP= 8.78D-06
 IDIUse=1 WtCom= 1.00D+00 WtEn= 0.00D+00
 Coeff-Com:  0.326D-02-0.350D-01-0.625D-01 0.202D+00 0.892D+00
 Coeff:      0.326D-02-0.350D-01-0.625D-01 0.202D+00 0.892D+00
 Gap=     0.635 Goal=   None    Shift=    0.000
 RMSDP=7.45D-06 MaxDP=8.49D-05 DE=-9.93D-06 OVMax= 3.65D-04

 Cycle   6  Pass 1  IDiag  1:
 E= -213.992368299052     Delta-E=       -0.000001407034 Rises=F Damp=F
 DIIS: error= 2.66D-05 at cycle   6 NSaved=   6.
 NSaved= 6 IEnMin= 6 EnMin= -213.992368299052     IErMin= 6 ErrMin= 2.66D-05
 ErrMax= 2.66D-05  0.00D+00 EMaxC= 1.00D-01 BMatC= 6.61D-08 BMatP= 1.18D-06
 IDIUse=1 WtCom= 1.00D+00 WtEn= 0.00D+00
 Coeff-Com: -0.332D-03 0.535D-02-0.173D-02-0.829D-01-0.300D-01 0.111D+01
 Coeff:     -0.332D-03 0.535D-02-0.173D-02-0.829D-01-0.300D-01 0.111D+01
 Gap=     0.635 Goal=   None    Shift=    0.000
 RMSDP=2.28D-06 MaxDP=3.42D-05 DE=-1.41D-06 OVMax= 1.60D-04

 Cycle   7  Pass 1  IDiag  1:
 E= -213.992368435827     Delta-E=       -0.000000136774 Rises=F Damp=F
 DIIS: error= 5.89D-06 at cycle   7 NSaved=   7.
 NSaved= 7 IEnMin= 7 EnMin= -213.992368435827     IErMin= 7 ErrMin= 5.89D-06
 ErrMax= 5.89D-06  0.00D+00 EMaxC= 1.00D-01 BMatC= 5.14D-09 BMatP= 6.61D-08
 IDIUse=1 WtCom= 1.00D+00 WtEn= 0.00D+00
 Coeff-Com: -0.198D-03 0.194D-02 0.406D-02-0.285D-02-0.737D-01-0.178D+00
 Coeff-Com:  0.125D+01
 Coeff:     -0.198D-03 0.194D-02 0.406D-02-0.285D-02-0.737D-01-0.178D+00
 Coeff:      0.125D+01
 Gap=     0.635 Goal=   None    Shift=    0.000
 RMSDP=8.56D-07 MaxDP=1.44D-05 DE=-1.37D-07 OVMax= 5.12D-05

 Cycle   8  Pass 1  IDiag  1:
 E= -213.992368448273     Delta-E=       -0.000000012446 Rises=F Damp=F
 DIIS: error= 1.11D-06 at cycle   8 NSaved=   8.
 NSaved= 8 IEnMin= 8 EnMin= -213.992368448273     IErMin= 8 ErrMin= 1.11D-06
 ErrMax= 1.11D-06  0.00D+00 EMaxC= 1.00D-01 BMatC= 2.22D-10 BMatP= 5.14D-09
 IDIUse=1 WtCom= 1.00D+00 WtEn= 0.00D+00
 Coeff-Com:  0.230D-04-0.265D-03 0.145D-03 0.438D-02 0.861D-03-0.469D-01
 Coeff-Com:  0.645D-02 0.104D+01
 Coeff:      0.230D-04-0.265D-03 0.145D-03 0.438D-02 0.861D-03-0.469D-01
 Coeff:      0.645D-02 0.104D+01
 Gap=     0.635 Goal=   None    Shift=    0.000
 RMSDP=1.30D-07 MaxDP=2.28D-06 DE=-1.24D-08 OVMax= 7.31D-06

 Cycle   9  Pass 1  IDiag  1:
 E= -213.992368448597     Delta-E=       -0.000000000324 Rises=F Damp=F
 DIIS: error= 4.38D-07 at cycle   9 NSaved=   9.
 NSaved= 9 IEnMin= 9 EnMin= -213.992368448597     IErMin= 9 ErrMin= 4.38D-07
 ErrMax= 4.38D-07  0.00D+00 EMaxC= 1.00D-01 BMatC= 4.02D-11 BMatP= 2.22D-10
 IDIUse=1 WtCom= 1.00D+00 WtEn= 0.00D+00
 Coeff-Com:  0.187D-04-0.223D-03-0.305D-03 0.982D-03 0.688D-02 0.794D-02
 Coeff-Com: -0.121D+00 0.283D+00 0.823D+00
 Coeff:      0.187D-04-0.223D-03-0.305D-03 0.982D-03 0.688D-02 0.794D-02
 Coeff:     -0.121D+00 0.283D+00 0.823D+00
 Gap=     0.635 Goal=   None    Shift=    0.000
 RMSDP=3.64D-08 MaxDP=7.29D-07 DE=-3.24D-10 OVMax= 1.79D-06

 Cycle  10  Pass 1  IDiag  1:
 E= -213.992368448638     Delta-E=       -0.000000000041 Rises=F Damp=F
 DIIS: error= 8.81D-08 at cycle  10 NSaved=  10.
 NSaved=10 IEnMin=10 EnMin= -213.992368448638     IErMin=10 ErrMin= 8.81D-08
 ErrMax= 8.81D-08  0.00D+00 EMaxC= 1.00D-01 BMatC= 1.57D-12 BMatP= 4.02D-11
 IDIUse=1 WtCom= 1.00D+00 WtEn= 0.00D+00
 Coeff-Com: -0.139D-05 0.195D-04-0.123D-05-0.321D-03-0.665D-04 0.274D-02
 Coeff-Com:  0.407D-02-0.964D-01-0.682D-01 0.116D+01
 Coeff:     -0.139D-05 0.195D-04-0.123D-05-0.321D-03-0.665D-04 0.274D-02
 Coeff:      0.407D-02-0.964D-01-0.682D-01 0.116D+01
 Gap=     0.635 Goal=   None    Shift=    0.000
 RMSDP=1.51D-08 MaxDP=2.17D-07 DE=-4.08D-11 OVMax= 8.04D-07

 Cycle  11  Pass 1  IDiag  1:
 E= -213.992368448641     Delta-E=       -0.000000000003 Rises=F Damp=F
 DIIS: error= 2.36D-08 at cycle  11 NSaved=  11.
 NSaved=11 IEnMin=11 EnMin= -213.992368448641     IErMin=11 ErrMin= 2.36D-08
 ErrMax= 2.36D-08  0.00D+00 EMaxC= 1.00D-01 BMatC= 8.87D-14 BMatP= 1.57D-12
 IDIUse=1 WtCom= 1.00D+00 WtEn= 0.00D+00
 Coeff-Com: -0.100D-05 0.112D-04 0.197D-04-0.149D-04-0.447D-03-0.100D-02
 Coeff-Com:  0.728D-02-0.120D-02-0.352D-01-0.196D+00 0.123D+01
 Coeff:     -0.100D-05 0.112D-04 0.197D-04-0.149D-04-0.447D-03-0.100D-02
 Coeff:      0.728D-02-0.120D-02-0.352D-01-0.196D+00 0.123D+01
 Gap=     0.635 Goal=   None    Shift=    0.000
 RMSDP=3.63D-09 MaxDP=6.91D-08 DE=-2.96D-12 OVMax= 2.25D-07

 SCF Done:  E(RHF) =  -213.992368449     A.U. after   11 cycles
            NFock= 11  Conv=0.36D-08     -V/T= 2.0012
 KE= 2.137435213947D+02 PE=-6.666033351234D+02 EE= 1.598599344015D+02
 Leave Link  502 at Sun Sep 13 22:12:14 2026, MaxMem=   805306368 cpu:               1.7 elap:               1.8
 (Enter /app1/ia32-64/Gaussian/Rev-C.02/g16/l801.exe)
 ExpMin= 1.03D-01 ExpMax= 1.95D+04 ExpMxC= 6.65D+02 IAcc=3 IRadAn=         5 AccDes= 0.00D+00
 HarFok:  IExCor=  205 AccDes= 0.00D+00 IRadAn=         5 IDoV=-2 UseB2=F ITyADJ=14
 ICtDFT= 12500011 ScaDFX=  1.000000  1.000000  1.000000  1.000000
 Largest valence mixing into a core orbital is  2.11D-04
 Largest core mixing into a valence orbital is  2.40D-05
 Range of M.O.s used for correlation:     4   132
 NBasis=   132 NAE=    13 NBE=    13 NFC=     3 NFV=     0
 NROrb=    129 NOA=    10 NOB=    10 NVA=   119 NVB=   119
 Leave Link  801 at Sun Sep 13 22:12:14 2026, MaxMem=   805306368 cpu:               0.1 elap:               0.2
 (Enter /app1/ia32-64/Gaussian/Rev-C.02/g16/l914.exe)
 RHF ground state
 Keep R1, R2, and R3 ints in memory in canonical form, NReq=117609989.
 FoFCou: FMM=F IPFlag=           0 FMFlag=           0 FMFlg1=           0
         NFxFlg=           0 DoJE=F BraDBF=F KetDBF=F FulRan=T
         wScrn=  0.000000 ICntrl=       600 IOpCl=  0 I1Cent=           0 NGrid=           0
         NMat0=    1 NMatS0=   8778 NMatT0=    0 NMatD0=    1 NMtDS0=    0 NMtDT0=    0
 Symmetry not used in FoFCou.
 Two-electron integral symmetry not used.
 MDV=   805306368 DFT=F DoStab=F Mixed=F DoRPA=F DoScal=F NonHer=F
 Making orbital integer symmetry assigments:
 Orbital symmetries:
       Occupied  (A) (A) (A) (A) (A) (A) (A) (A) (A) (A) (A) (A)
                 (A)
       Virtual   (A) (A) (A) (A) (A) (A) (A) (A) (A) (A) (A) (A)
                 (A) (A) (A) (A) (A) (A) (A) (A) (A) (A) (A) (A)
                 (A) (A) (A) (A) (A) (A) (A) (A) (A) (A) (A) (A)
                 (A) (A) (A) (A) (A) (A) (A) (A) (A) (A) (A) (A)
                 (A) (A) (A) (A) (A) (A) (A) (A) (A) (A) (A) (A)
                 (A) (A) (A) (A) (A) (A) (A) (A) (A) (A) (A) (A)
                 (A) (A) (A) (A) (A) (A) (A) (A) (A) (A) (A) (A)
                 (A) (A) (A) (A) (A) (A) (A) (A) (A) (A) (A) (A)
                 (A) (A) (A) (A) (A) (A) (A) (A) (A) (A) (A) (A)
                 (A) (A) (A) (A) (A) (A) (A) (A) (A) (A) (A)
    20 initial guesses have been made.
 Convergence on wavefunction:    0.001000000000000
 Davidson Disk Diagonalization:  ConvIn= 1.00D-03 SkipCon=T Conv= 1.00D-03.
 Max sub-space:  2000 roots to seek:    20 dimension of matrix:         2380
 Iteration     1 Dimension    20 NMult     0 NNew     20
 CISAX will form    20 AO SS matrices at one time.
 NMat=    20 NSing=    20 JSym2X= 0.
 New state      3 was old state      4
 New state      4 was old state      3
 New state      5 was old state      8
 Excitation Energies [eV] at current iteration:
 Root      1 :    10.106304425283923
 Root      2 :    11.369871702933169
 Root      3 :    12.165863269613187
 Root      4 :    12.791649428335331
 Root      5 :    13.210953604473438
 Root      6 :    13.409768289338677
 Root      7 :    13.666389183358575
 Root      8 :    14.285611486033597
 Root      9 :    14.451805335952503
 Root     10 :    14.643131817168152
 Root     11 :    14.847115241318795
 Root     12 :    15.127255778456046
 Root     13 :    15.196306191039259
 Root     14 :    15.716450452250911
 Root     15 :    16.038697119205072
 Root     16 :    16.338767963497848
 Root     17 :    16.859792604250114
 Root     18 :    17.114501510793453
 Root     19 :    17.249167431739007
 Root     20 :    18.694053444508256
 Iteration     2 Dimension    40 NMult    20 NNew     20
 CISAX will form    20 AO SS matrices at one time.
 NMat=    20 NSing=    20 JSym2X= 0.
 Root      1 not converged, maximum delta is    0.053683011139155
 Root      2 not converged, maximum delta is    0.052090494187538
 Root      3 not converged, maximum delta is    0.039251242364037
 Root      4 not converged, maximum delta is    0.041539941160630
 New state      5 was old state      6
 Root      5 not converged, maximum delta is    0.214379488160198
 Excitation Energies [eV] at current iteration:
 Root      1 :     9.818170578695701   Change is   -0.288133846588223
 Root      2 :    11.061698929799348   Change is   -0.308172773133820
 Root      3 :    11.884856254998015   Change is   -0.281007014615173
 Root      4 :    12.451274714077979   Change is   -0.340374714257352
 Root      5 :    13.054884024613463   Change is   -0.354884264725215
 Root      6 :    13.059000229564951   Change is   -0.151953374908487
 Root      7 :    13.383933090688796   Change is   -0.282456092669779
 Root      8 :    13.921659666381853   Change is   -0.363951819651743
 Root      9 :    14.058737098697213   Change is   -0.393068237255290
 Root     10 :    14.310988052739761   Change is   -0.332143764428390
 Root     11 :    14.454408474040227   Change is   -0.392706767278567
 Root     12 :    14.566379992752385   Change is   -0.560875785703660
 Root     13 :    14.930910327346474   Change is   -0.265395863692785
 Root     14 :    15.358162784845749   Change is   -0.358287667405161
 Root     15 :    15.512679443544338   Change is   -0.526017675660736
 Root     16 :    16.011934839352119   Change is   -0.326833124145731
 Root     17 :    16.201239782745663   Change is   -0.658552821504448
 Root     18 :    16.858397173328381   Change is   -0.390770258410626
 Root     19 :    16.964521046358655   Change is   -0.149980464434798
 Root     20 :    17.283365165499298   Change is   -1.410688279008958
 Iteration     3 Dimension    45 NMult    40 NNew      5
 CISAX will form     5 AO SS matrices at one time.
 NMat=     5 NSing=     5 JSym2X= 0.
 Root      1 not converged, maximum delta is    0.005111390391265
 Root      2 not converged, maximum delta is    0.007182725717022
 Root      3 not converged, maximum delta is    0.016551418942102
 Root      4 not converged, maximum delta is    0.007810863958754
 Root      5 not converged, maximum delta is    0.109445812766251
 Excitation Energies [eV] at current iteration:
 Root      1 :     9.808548652237064   Change is   -0.009621926458635
 Root      2 :    11.048091026228201   Change is   -0.013607903571147
 Root      3 :    11.865369401874050   Change is   -0.019486853123965
 Root      4 :    12.433949817551781   Change is   -0.017324896526197
 Root      5 :    13.031457786808639   Change is   -0.023426237804823
 Iteration     4 Dimension    50 NMult    45 NNew      5
 CISAX will form     5 AO SS matrices at one time.
 NMat=     5 NSing=     5 JSym2X= 0.
 Root      1 not converged, maximum delta is    0.001168258110546
 Root      2 not converged, maximum delta is    0.002005231643572
 Root      3 not converged, maximum delta is    0.002314205559911
 Root      4 not converged, maximum delta is    0.003333063039015
 Root      5 not converged, maximum delta is    0.044404506333677
 Excitation Energies [eV] at current iteration:
 Root      1 :     9.808112556497388   Change is   -0.000436095739678
 Root      2 :    11.047406853823645   Change is   -0.000684172404558
 Root      3 :    11.864000468085178   Change is   -0.001368933788871
 Root      4 :    12.432764681074936   Change is   -0.001185136476845
 Root      5 :    13.028193747895040   Change is   -0.003264038913600
 Iteration     5 Dimension    55 NMult    50 NNew      5
 CISAX will form     5 AO SS matrices at one time.
 NMat=     5 NSing=     5 JSym2X= 0.
 Root      1 has converged.
 Root      2 has converged.
 Root      3 has converged.
 Root      4 not converged, maximum delta is    0.001134724921559
 Root      5 not converged, maximum delta is    0.021543431660730
 Excitation Energies [eV] at current iteration:
 Root      1 :     9.808100076089003   Change is   -0.000012480408384
 Root      2 :    11.047380273877236   Change is   -0.000026579946409
 Root      3 :    11.863911331930574   Change is   -0.000089136154604
 Root      4 :    12.432667118620364   Change is   -0.000097562454574
 Root      5 :    13.027692738362116   Change is   -0.000501009532923
 Iteration     6 Dimension    57 NMult    55 NNew      2
 CISAX will form     2 AO SS matrices at one time.
 NMat=     2 NSing=     2 JSym2X= 0.
 Root      1 has converged.
 Root      2 has converged.
 Root      3 has converged.
 Root      4 has converged.
 Root      5 not converged, maximum delta is    0.008448195725319
 Excitation Energies [eV] at current iteration:
 Root      1 :     9.808100073729859   Change is   -0.000000002359143
 Root      2 :    11.047380242654365   Change is   -0.000000031222871
 Root      3 :    11.863910352587338   Change is   -0.000000979343236
 Root      4 :    12.432659326248087   Change is   -0.000007792372275
 Root      5 :    13.027625011053411   Change is   -0.000067727308705
 Iteration     7 Dimension    58 NMult    57 NNew      1
 CISAX will form     1 AO SS matrices at one time.
 NMat=     1 NSing=     1 JSym2X= 0.
 Root      1 has converged.
 Root      2 has converged.
 Root      3 has converged.
 Root      4 has converged.
 Root      5 not converged, maximum delta is    0.002205196232619
 Excitation Energies [eV] at current iteration:
 Root      1 :     9.808100070307571   Change is   -0.000000003422288
 Root      2 :    11.047380242517312   Change is   -0.000000000137054
 Root      3 :    11.863910270394506   Change is   -0.000000082192832
 Root      4 :    12.432659326068068   Change is   -0.000000000180020
 Root      5 :    13.027617253670854   Change is   -0.000007757382557
 Convergence on energies, max DE= 7.76D-06.
 Convergence on expansion vectors.
 ***********************************************************************
 Excited states from <AA,BB:AA,BB> singles matrix:
 ***********************************************************************
 
 1PDM for each excited state written to RWF  633
 Ground to excited state transition densities written to RWF  633
 Ground to excited state transition electric dipole moments (Au):
       state          X           Y           Z        Dip. S.      Osc.
         1         0.1526     -0.1020      0.0207      0.0341      0.0082
         2         0.0342     -0.2492     -0.3177      0.1642      0.0444
         3         0.1180     -0.0996      0.7860      0.6417      0.1865
         4        -0.0555      0.0470      0.2212      0.0542      0.0165
         5        -0.1991     -0.8315     -0.0209      0.7315      0.2335
 Ground to excited state transition velocity dipole moments (Au):
       state          X           Y           Z        Dip. S.      Osc.
         1        -0.0802      0.0706      0.0232      0.0120      0.0221
         2        -0.0344      0.0979      0.1094      0.0227      0.0373
         3        -0.0499      0.0257     -0.3078      0.0979      0.1497
         4         0.0162     -0.0213     -0.1607      0.0265      0.0387
         5         0.0735      0.3693      0.0280      0.1426      0.1985
 Ground to excited state transition magnetic dipole moments (Au):
       state          X           Y           Z
         1        -0.5007      0.3399     -0.3682
         2         0.8599     -0.4427     -0.4260
         3        -0.3684     -0.6733     -0.2405
         4         0.5458      0.9514     -0.0984
         5        -0.3727      0.1801     -0.1074
 Ground to excited state transition velocity quadrupole moments (Au):
       state          XX          YY          ZZ          XY          XZ          YZ
         1         0.3975     -0.2507     -0.0504     -0.1588     -0.2771     -0.2071
         2         0.2579     -0.1949      0.1900     -0.1664      0.2106      0.7491
         3         0.2379      0.0608     -0.2661     -0.0705      0.2023     -0.5318
         4         0.1342     -0.0460     -0.1452     -0.0594      0.0371     -0.2153
         5        -0.6323      0.8371      0.7153      0.0130      0.0741      0.0024
 <0|del|b> * <b|rxdel|0> + <0|del|b> * <b|delr+rdel|0>
 Rotatory Strengths (R) in cgs (10**-40 erg-esu-cm/Gauss)
       state          XX          YY          ZZ    R(velocity)    E-M Angle
         1        30.7230     50.9516     27.4647     36.3798       44.10
         2      -112.1373    -72.9579    -23.1038    -69.3997      138.60
         3        59.3896     78.8915    -16.4369     40.6147       72.63
         4         4.5594      8.9871     -6.7673      2.2597       88.60
         5        26.9600    -22.5916     48.9793     17.7825       77.08
 1/2[<0|r|b>*<b|rxdel|0> + (<0|rxdel|b>*<b|r|0>)*]
 Rotatory Strengths (R) in cgs (10**-40 erg-esu-cm/Gauss)
       state          XX          YY          ZZ     R(length)
         1        54.0392     24.5101      5.3904     27.9799
         2       -20.7705    -77.9970    -95.7095    -64.8256
         3        30.7455    -47.4283    133.7047     39.0073
         4        21.4389    -31.5961     15.3974      1.7467
         5       -52.4727    105.9026     -1.5864     17.2812
  1/2[<0|del|b>*<b|r|0> + (<0|r|b>*<b|del|0>)*] (Au)
       state          X           Y           Z        Dip. S.   Osc.(frdel)
         1        -0.0122     -0.0072      0.0005      0.0190      0.0126
         2        -0.0012     -0.0244     -0.0348      0.0603      0.0402
         3        -0.0059     -0.0026     -0.2419      0.2504      0.1669
         4        -0.0009     -0.0010     -0.0355      0.0374      0.0250
         5        -0.0146     -0.3071     -0.0006      0.3223      0.2149

 Excitation energies and oscillator strengths:
 
 Excited State   1:      Singlet-A      9.8081 eV  126.41 nm  f=0.0082  <S**2>=0.000
      12 -> 14         0.26417
      12 -> 15        -0.16442
      13 -> 14         0.55666
      13 -> 15        -0.19870
 This state for optimization and/or second-order correction.
 Total Energy, E(CIS/TDA) =  -213.631927403    
 Copying the excited state density for this state as the 1-particle RhoCI density.
 
 Excited State   2:      Singlet-A     11.0474 eV  112.23 nm  f=0.0444  <S**2>=0.000
      12 -> 14         0.51597
      13 -> 14        -0.34288
      13 -> 15        -0.19169
 
 Excited State   3:      Singlet-A     11.8639 eV  104.51 nm  f=0.1865  <S**2>=0.000
      10 -> 14        -0.14924
      11 -> 14         0.21388
      12 -> 14         0.13528
      12 -> 15        -0.24122
      12 -> 17         0.10386
      13 -> 15         0.52182
      13 -> 16        -0.10369
      13 -> 17        -0.10559
 
 Excited State   4:      Singlet-A     12.4327 eV   99.72 nm  f=0.0165  <S**2>=0.000
      10 -> 17        -0.11926
      11 -> 17         0.11255
      12 -> 17        -0.26497
      13 -> 17         0.55554
      13 -> 20         0.11084
 
 Excited State   5:      Singlet-A     13.0276 eV   95.17 nm  f=0.2335  <S**2>=0.000
      12 -> 15        -0.25403
      12 -> 16        -0.10276
      13 -> 14        -0.10666
      13 -> 16         0.57071
      13 -> 18         0.14701
 SavETr:  write IOETrn=   770 NScale= 10 NData=  16 NLR=1 NState=    5 LETran=     100.
 Leave Link  914 at Sun Sep 13 22:12:18 2026, MaxMem=   805306368 cpu:               3.7 elap:               4.2
 (Enter /app1/ia32-64/Gaussian/Rev-C.02/g16/l601.exe)
 Copying SCF densities to generalized density rwf, IOpCl= 0 IROHF=0.

 **********************************************************************

            Population analysis using the SCF Density.

 **********************************************************************

 Orbital symmetries:
       Occupied  (A) (A) (A) (A) (A) (A) (A) (A) (A) (A) (A) (A)
                 (A)
       Virtual   (A) (A) (A) (A) (A) (A) (A) (A) (A) (A) (A) (A)
                 (A) (A) (A) (A) (A) (A) (A) (A) (A) (A) (A) (A)
                 (A) (A) (A) (A) (A) (A) (A) (A) (A) (A) (A) (A)
                 (A) (A) (A) (A) (A) (A) (A) (A) (A) (A) (A) (A)
                 (A) (A) (A) (A) (A) (A) (A) (A) (A) (A) (A) (A)
                 (A) (A) (A) (A) (A) (A) (A) (A) (A) (A) (A) (A)
                 (A) (A) (A) (A) (A) (A) (A) (A) (A) (A) (A) (A)
                 (A) (A) (A) (A) (A) (A) (A) (A) (A) (A) (A) (A)
                 (A) (A) (A) (A) (A) (A) (A) (A) (A) (A) (A) (A)
                 (A) (A) (A) (A) (A) (A) (A) (A) (A) (A) (A)
 The electronic state is 1-A.
 Alpha  occ. eigenvalues --  -26.27865 -20.58582 -11.36686  -1.59502  -1.39556
 Alpha  occ. eigenvalues --   -0.93860  -0.75761  -0.71279  -0.70466  -0.62744
 Alpha  occ. eigenvalues --   -0.57806  -0.53097  -0.49793
 Alpha virt. eigenvalues --    0.13698   0.17175   0.21003   0.26954   0.32205
 Alpha virt. eigenvalues --    0.45333   0.51345   0.53669   0.55532   0.58156
 Alpha virt. eigenvalues --    0.60875   0.62774   0.68728   0.77266   0.79196
 Alpha virt. eigenvalues --    0.83257   0.88896   0.89746   0.93819   1.03269
 Alpha virt. eigenvalues --    1.09771   1.11142   1.20452   1.24351   1.26449
 Alpha virt. eigenvalues --    1.27267   1.33134   1.43335   1.43772   1.50577
 Alpha virt. eigenvalues --    1.53597   1.58786   1.68837   1.89243   2.03788
 Alpha virt. eigenvalues --    2.08936   2.12009   2.20725   2.32195   2.33391
 Alpha virt. eigenvalues --    2.45023   2.47808   2.54977   2.57186   2.66419
 Alpha virt. eigenvalues --    2.72498   2.81955   2.99662   3.07302   3.12886
 Alpha virt. eigenvalues --    3.19837   3.24265   3.26048   3.34410   3.35799
 Alpha virt. eigenvalues --    3.44012   3.45866   3.54017   3.61474   3.64679
 Alpha virt. eigenvalues --    3.67719   3.73360   3.77816   3.80344   3.81167
 Alpha virt. eigenvalues --    3.90752   3.96771   4.02589   4.10691   4.15558
 Alpha virt. eigenvalues --    4.20153   4.24489   4.30383   4.34337   4.38778
 Alpha virt. eigenvalues --    4.45500   4.49337   4.63883   4.82669   4.98311
 Alpha virt. eigenvalues --    5.03398   5.11320   5.17723   5.24788   5.31129
 Alpha virt. eigenvalues --    5.34270   5.43569   5.48078   5.50608   5.71919
 Alpha virt. eigenvalues --    5.94383   6.12769   6.15963   6.35185   6.43089
 Alpha virt. eigenvalues --    6.62693   6.95545   7.08387   7.15360   7.17737
 Alpha virt. eigenvalues --    7.27071   7.36798   7.42569   7.44878   7.55549
 Alpha virt. eigenvalues --    7.57489   7.59199   7.80292   7.82813   7.88191
 Alpha virt. eigenvalues --    7.94889   8.99898   9.00724   9.43571   9.45862
 Alpha virt. eigenvalues --    9.61159  11.73795  12.18668  13.14427
          Condensed to atoms (all electrons):
               1          2          3          4          5          6
     1  C    4.165316   0.302799   0.389457   0.424754   0.408299  -0.032305
     2  F    0.302799   9.133477  -0.048384  -0.044345  -0.037339   0.002693
     3  O    0.389457  -0.048384   7.784072  -0.047842  -0.038471   0.329841
     4  H    0.424754  -0.044345  -0.047842   0.717196  -0.073072  -0.014264
     5  H    0.408299  -0.037339  -0.038471  -0.073072   0.662190   0.009686
     6  H   -0.032305   0.002693   0.329841  -0.014264   0.009686   0.474731
 Mulliken charges:
               1
     1  C    0.341679
     2  F   -0.308902
     3  O   -0.368673
     4  H    0.037572
     5  H    0.068706
     6  H    0.229618
 Sum of Mulliken charges =  -0.00000
 Mulliken charges with hydrogens summed into heavy atoms:
               1
     1  C    0.447957
     2  F   -0.308902
     3  O   -0.139055
 Electronic spatial extent (au):  <R**2>=            151.9853
 Charge=             -0.0000 electrons
 Dipole moment (field-independent basis, Debye):
    X=             -0.8557    Y=              0.9730    Z=              1.5582  Tot=              2.0266
 Quadrupole moment (field-independent basis, Debye-Ang):
   XX=            -20.1688   YY=            -15.4690   ZZ=            -15.6192
   XY=              1.8312   XZ=             -2.0383   YZ=             -1.4240
 Traceless Quadrupole moment (field-independent basis, Debye-Ang):
   XX=             -3.0831   YY=              1.6167   ZZ=              1.4664
   XY=              1.8312   XZ=             -2.0383   YZ=             -1.4240
 Octapole moment (field-independent basis, Debye-Ang**2):
  XXX=              2.3757  YYY=             -2.8356  ZZZ=              1.0105  XYY=             -0.2201
  XXY=             -2.4495  XXZ=              2.7952  XZZ=              0.1692  YZZ=             -0.7105
  YYZ=              0.7774  XYZ=              1.6838
 Hexadecapole moment (field-independent basis, Debye-Ang**3):
 XXXX=           -103.4342 YYYY=            -36.1016 ZZZZ=            -20.3251 XXXY=              2.7241
 XXXZ=             -4.3920 YYYX=              0.4582 YYYZ=             -1.9078 ZZZX=             -1.7665
 ZZZY=             -1.1968 XXYY=            -20.8825 XXZZ=            -19.1734 YYZZ=             -8.1329
 XXYZ=             -2.2974 YYXZ=             -1.5237 ZZXY=              0.7716
 N-N= 7.900751087866D+01 E-N=-6.666033348646D+02  KE= 2.137435213947D+02
 Leave Link  601 at Sun Sep 13 22:12:19 2026, MaxMem=   805306368 cpu:               0.0 elap:               0.0
 (Enter /app1/ia32-64/Gaussian/Rev-C.02/g16/l9999.exe)
 Electronic transition elements 
                 1             2             3             4             5 
      1  -0.213632D+03 -0.213586D+03 -0.213556D+03 -0.213535D+03 -0.213514D+03
      2  -0.246625D-01  0.199560D+00 -0.865219D-01 -0.231097D-01  0.757275D+00
      3  -0.255509D-01  0.289953D+00 -0.786892D+00 -0.216854D+00 -0.771234D-01
      4   0.181265D+00  0.200676D+00  0.122468D+00 -0.816385D-01  0.389950D+00
      5  -0.346329D-02 -0.631026D-01  0.463050D-01  0.228527D-01 -0.328661D+00
      6  -0.185683D-01 -0.994436D-01  0.306530D+00  0.157931D+00  0.150258D-01
      7  -0.107699D+00 -0.941482D-01 -0.421452D-01  0.326005D-01 -0.185305D+00
      8   0.109328D+00 -0.179663D+00  0.771957D+00 -0.105984D+01  0.118247D+00
      9   0.382711D+00  0.409369D+00  0.151487D+00  0.222339D+00  0.111456D+00
     10  -0.586014D+00  0.957588D+00  0.167511D+00 -0.199811D+00 -0.395593D+00
     11  -0.202523D+00 -0.107583D-01  0.484286D-02 -0.588977D-01  0.238767D+00
     12   0.128716D-01  0.656238D-02 -0.163704D+00 -0.100742D+00  0.708368D+00
     13   0.285945D+00  0.257262D+00  0.191494D+00  0.102637D+00 -0.271078D-01
     14  -0.309301D+00  0.732446D+00 -0.294109D+00 -0.143976D+00  0.727132D-01
     15  -0.300589D+00 -0.133240D+00 -0.142992D+00 -0.104166D+00  0.718398D+00
     16   0.952249D-01  0.340770D+00 -0.505618D+00 -0.167932D+00 -0.102833D+00
 Unable to Open any file for archive entry.
 1\1\GINC-CNODE-33-43-49\SP\RCIS-FC\CC-pVTZ\C1H3F1O1\ZHANGXUBO\13-Sep-2
 026\0\\#p cis(nstates=5)/cc-pVTZ geom=check guess=read\\CFH2-OH first 
 5 excited states / CIS/cc-pVTZ\\0,1\C,0,0.0179248405,-0.008177598,0.00
 46396175\F,0,-0.0864350264,0.0188280577,1.3922717302\O,0,1.3359007369,
 0.0323495411,-0.3955894251\H,0,-0.4990395904,-0.9143453299,-0.32277035
 \H,0,-0.465073257,0.8877950102,-0.3810287388\H,0,1.7586209671,-0.80714
 32205,-0.1858820945\\Version=ES64L-G16RevC.02\State=1-A\HF=-213.992368
 4\RMSD=3.628e-09\PG=C01 [X(C1H3F1O1)]\\@
 The archive entry for this job was punched.


 FIREWORKS ENDED
 AND SPECTATORS GONE AWAY....
 AH, HOW VAST AND DARK
                     SHIKI
 Job cpu time:       0 days  0 hours  0 minutes  6.2 seconds.
 Elapsed time:       0 days  0 hours  0 minutes  7.0 seconds.
 File lengths (MBytes):  RWF=     85 Int=      0 D2E=      0 Chk=     34 Scr=      1
 Normal termination of Gaussian 16 at Sun Sep 13 22:12:19 2026.
