PYTHONPATH: Undefined variable.
 Entering Gaussian System, Link 0=/app1/ia32-64/Gaussian/Rev-C.02/g16/g16
 Initial command:
 /app1/ia32-64/Gaussian/Rev-C.02/g16/l1.exe "/scratch/1000806.venus01/Gau-91502.inp" -scrdir="/scratch/1000806.venus01/"
 Entering Link 1 = /app1/ia32-64/Gaussian/Rev-C.02/g16/l1.exe PID=     91521.
  
 Copyright (c) 1988-2021, Gaussian, Inc.  All Rights Reserved.
  
 This is part of the Gaussian(R) 16 program.  It is based on
 the Gaussian(R) 09 system (copyright 2009, Gaussian, Inc.),
 the Gaussian(R) 03 system (copyright 2003, Gaussian, Inc.),
 the Gaussian(R) 98 system (copyright 1998, Gaussian, Inc.),
 the Gaussian(R) 94 system (copyright 1995, Gaussian, Inc.),
 the Gaussian 92(TM) system (copyright 1992, Gaussian, Inc.),
 the Gaussian 90(TM) system (copyright 1990, Gaussian, Inc.),
 the Gaussian 88(TM) system (copyright 1988, Gaussian, Inc.),
 the Gaussian 86(TM) system (copyright 1986, Carnegie Mellon
 University), and the Gaussian 82(TM) system (copyright 1983,
 Carnegie Mellon University). Gaussian is a federally registered
 trademark of Gaussian, Inc.
  
 This software contains proprietary and confidential information,
 including trade secrets, belonging to Gaussian, Inc.
  
 This software is provided under written license and may be
 used, copied, transmitted, or stored only in accord with that
 written license.
  
 The following legend is applicable only to US Government
 contracts under FAR:
  
                    RESTRICTED RIGHTS LEGEND
  
 Use, reproduction and disclosure by the US Government is
 subject to restrictions as set forth in subparagraphs (a)
 and (c) of the Commercial Computer Software - Restricted
 Rights clause in FAR 52.227-19.
  
 Gaussian, Inc.
 340 Quinnipiac St., Bldg. 40, Wallingford CT 06492
  
  
 ---------------------------------------------------------------
 Warning -- This program may not be used in any manner that
 competes with the business of Gaussian, Inc. or will provide
 assistance to any competitor of Gaussian, Inc.  The licensee
 of this program is prohibited from giving any competitor of
 Gaussian, Inc. access to this program.  By using this program,
 the user acknowledges that Gaussian, Inc. is engaged in the
 business of creating and licensing software in the field of
 computational chemistry and represents and warrants to the
 licensee that it is not a competitor of Gaussian, Inc. and that
 it will not use this program in any manner prohibited above.
 ---------------------------------------------------------------
  

 Cite this work as:
 Gaussian 16, Revision C.02,
 M. J. Frisch, G. W. Trucks, H. B. Schlegel, G. E. Scuseria, 
 M. A. Robb, J. R. Cheeseman, G. Scalmani, V. Barone, 
 G. A. Petersson, H. Nakatsuji, X. Li, M. Caricato, A. V. Marenich, 
 J. Bloino, B. G. Janesko, R. Gomperts, B. Mennucci, H. P. Hratchian, 
 J. V. Ortiz, A. F. Izmaylov, J. L. Sonnenberg, D. Williams-Young, 
 F. Ding, F. Lipparini, F. Egidi, J. Goings, B. Peng, A. Petrone, 
 T. Henderson, D. Ranasinghe, V. G. Zakrzewski, J. Gao, N. Rega, 
 G. Zheng, W. Liang, M. Hada, M. Ehara, K. Toyota, R. Fukuda, 
 J. Hasegawa, M. Ishida, T. Nakajima, Y. Honda, O. Kitao, H. Nakai, 
 T. Vreven, K. Throssell, J. A. Montgomery, Jr., J. E. Peralta, 
 F. Ogliaro, M. J. Bearpark, J. J. Heyd, E. N. Brothers, K. N. Kudin, 
 V. N. Staroverov, T. A. Keith, R. Kobayashi, J. Normand, 
 K. Raghavachari, A. P. Rendell, J. C. Burant, S. S. Iyengar, 
 J. Tomasi, M. Cossi, J. M. Millam, M. Klene, C. Adamo, R. Cammi, 
 J. W. Ochterski, R. L. Martin, K. Morokuma, O. Farkas, 
 J. B. Foresman, and D. J. Fox, Gaussian, Inc., Wallingford CT, 2019.
 
 ******************************************
 Gaussian 16:  ES64L-G16RevC.02  7-Dec-2021
                 8-Sep-2026 
 ******************************************
 %chk=hcl_sp_sto3g.chk
 %mem=1GB
 %nproc=1
 Will use up to    1 processors via shared memory.
 ---------------------------------------------------
 #p hf/sto-3g guess=save geom=connectivity scf=tight
 ---------------------------------------------------
 1/38=1,57=2,172=1/1;
 2/12=2,17=6,18=5,40=1/2;
 3/6=3,11=9,25=1,30=1/1,2,3;
 4//1;
 5/5=2,32=2,38=5/2;
 6/7=2,8=2,9=2,10=2,28=1/1;
 99/5=1,9=1/99;
 Leave Link    1 at Tue Sep  8 00:58:05 2026, MaxMem=   134217728 cpu:               0.0 elap:               0.1
 (Enter /app1/ia32-64/Gaussian/Rev-C.02/g16/l101.exe)
 ------------------------------------------------------------
 Calculation of the ground state energy with STO-3G basis set
 ------------------------------------------------------------
 Symbolic Z-matrix:
 Charge =  0 Multiplicity = 1
 Cl
 H                    1    B1
       Variables:
  B1                    1.275                    
 
 ITRead=  0  0
 MicOpt= -1 -1
 NAtoms=      2 NQM=        2 NQMF=       0 NMMI=      0 NMMIF=      0
                NMic=       0 NMicF=      0.
                    Isotopes and Nuclear Properties:
 (Nuclear quadrupole moments (NQMom) in fm**2, nuclear magnetic moments (NMagM)
  in nuclear magnetons)

  Atom         1           2
 IAtWgt=          35           1
 AtmWgt=  34.9688527   1.0078250
 NucSpn=           3           1
 AtZEff=  -0.0000000  -0.0000000
 NQMom=   -8.1650000   0.0000000
 NMagM=    0.8218740   2.7928460
 AtZNuc=  17.0000000   1.0000000
 Leave Link  101 at Tue Sep  8 00:58:05 2026, MaxMem=   134217728 cpu:               0.1 elap:               0.1
 (Enter /app1/ia32-64/Gaussian/Rev-C.02/g16/l202.exe)
                          Input orientation:                          
 ---------------------------------------------------------------------
 Center     Atomic      Atomic             Coordinates (Angstroms)
 Number     Number       Type             X           Y           Z
 ---------------------------------------------------------------------
      1         17           0        0.000000    0.000000    0.000000
      2          1           0        0.000000    0.000000    1.275000
 ---------------------------------------------------------------------
 Stoichiometry    ClH
 Framework group  C*V[C*(HCl)]
 Deg. of freedom     1
 Full point group                 C*V     NOp   4
 Largest Abelian subgroup         C2V     NOp   4
 Largest concise Abelian subgroup C1      NOp   1
                         Standard orientation:                         
 ---------------------------------------------------------------------
 Center     Atomic      Atomic             Coordinates (Angstroms)
 Number     Number       Type             X           Y           Z
 ---------------------------------------------------------------------
      1         17           0        0.000000    0.000000    0.070833
      2          1           0        0.000000    0.000000   -1.204167
 ---------------------------------------------------------------------
 Rotational constants (GHZ):           0.0000000         317.3593948         317.3593948
 Leave Link  202 at Tue Sep  8 00:58:05 2026, MaxMem=   134217728 cpu:               0.0 elap:               0.1
 (Enter /app1/ia32-64/Gaussian/Rev-C.02/g16/l301.exe)
 Standard basis: STO-3G (5D, 7F)
 Ernie: Thresh=  0.10000D-02 Tol=  0.10000D-05 Strict=F.
 There are     6 symmetry adapted cartesian basis functions of A1  symmetry.
 There are     0 symmetry adapted cartesian basis functions of A2  symmetry.
 There are     2 symmetry adapted cartesian basis functions of B1  symmetry.
 There are     2 symmetry adapted cartesian basis functions of B2  symmetry.
 There are     6 symmetry adapted basis functions of A1  symmetry.
 There are     0 symmetry adapted basis functions of A2  symmetry.
 There are     2 symmetry adapted basis functions of B1  symmetry.
 There are     2 symmetry adapted basis functions of B2  symmetry.
    10 basis functions,    30 primitive gaussians,    10 cartesian basis functions
     9 alpha electrons        9 beta electrons
       nuclear repulsion energy         7.0556961456 Hartrees.
 IExCor=    0 DFT=F Ex=HF Corr=None ExCW=0 ScaHFX=  1.000000
 ScaDFX=  1.000000  1.000000  1.000000  1.000000 ScalE2=  1.000000  1.000000
 IRadAn=      5 IRanWt=     -1 IRanGd=            0 ICorTp=0 IEmpDi=  4
 NAtoms=    2 NActive=    2 NUniq=    2 SFac= 1.00D+00 NAtFMM=   60 NAOKFM=F Big=F
 Integral buffers will be    131072 words long.
 Raffenetti 1 integral format.
 Two-electron integral symmetry is turned on.
 Leave Link  301 at Tue Sep  8 00:58:05 2026, MaxMem=   134217728 cpu:               0.0 elap:               0.0
 (Enter /app1/ia32-64/Gaussian/Rev-C.02/g16/l302.exe)
 NPDir=0 NMtPBC=     1 NCelOv=     1 NCel=       1 NClECP=     1 NCelD=      1
         NCelK=      1 NCelE2=     1 NClLst=     1 CellRange=     0.0.
 One-electron integrals computed using PRISM.
 One-electron integral symmetry used in STVInt
 NBasis=    10 RedAO= T EigKep=  3.57D-01  NBF=     6     0     2     2
 NBsUse=    10 1.00D-06 EigRej= -1.00D+00 NBFU=     6     0     2     2
 Leave Link  302 at Tue Sep  8 00:58:06 2026, MaxMem=   134217728 cpu:               0.1 elap:               0.1
 (Enter /app1/ia32-64/Gaussian/Rev-C.02/g16/l303.exe)
 DipDrv:  MaxL=1.
 Leave Link  303 at Tue Sep  8 00:58:06 2026, MaxMem=   134217728 cpu:               0.0 elap:               0.0
 (Enter /app1/ia32-64/Gaussian/Rev-C.02/g16/l401.exe)
 ExpMin= 1.69D-01 ExpMax= 6.01D+02 ExpMxC= 6.01D+02 IAcc=3 IRadAn=         5 AccDes= 0.00D+00
 Harris functional with IExCor=  205 and IRadAn=       5 diagonalized for initial guess.
 HarFok:  IExCor=  205 AccDes= 0.00D+00 IRadAn=         5 IDoV= 1 UseB2=F ITyADJ=14
 ICtDFT=  3500011 ScaDFX=  1.000000  1.000000  1.000000  1.000000
 FoFCou: FMM=F IPFlag=           0 FMFlag=      100000 FMFlg1=           0
         NFxFlg=           0 DoJE=T BraDBF=F KetDBF=T FulRan=T
         wScrn=  0.000000 ICntrl=       500 IOpCl=  0 I1Cent=   200000004 NGrid=           0
         NMat0=    1 NMatS0=      1 NMatT0=    0 NMatD0=    1 NMtDS0=    0 NMtDT0=    0
 Petite list used in FoFCou.
 Harris En= -454.571499625110    
 JPrj=0 DoOrth=F DoCkMO=F.
 Initial guess orbital symmetries:
       Occupied  (SG) (SG) (SG) (PI) (PI) (SG) (SG) (PI) (PI)
       Virtual   (SG)
 The electronic state of the initial guess is 1-SG.
 Leave Link  401 at Tue Sep  8 00:58:06 2026, MaxMem=   134217728 cpu:               0.1 elap:               0.1
 (Enter /app1/ia32-64/Gaussian/Rev-C.02/g16/l502.exe)
 Keep R1 ints in memory in symmetry-blocked form, NReq=804542.
 FoFCou: FMM=F IPFlag=           0 FMFlag=           0 FMFlg1=           0
         NFxFlg=           0 DoJE=F BraDBF=F KetDBF=F FulRan=T
         wScrn=  0.000000 ICntrl=       600 IOpCl=  0 I1Cent=           0 NGrid=           0
         NMat0=    1 NMatS0=     55 NMatT0=    0 NMatD0=    1 NMtDS0=    0 NMtDT0=    0
 Petite list used in FoFCou.
 Closed shell SCF:
 Using DIIS extrapolation, IDIIS=  1040.
 NGot=   134217728 LenX=   134215252 LenY=   134214370
 Requested convergence on RMS density matrix=1.00D-08 within 128 cycles.
 Requested convergence on MAX density matrix=1.00D-06.
 Requested convergence on             energy=1.00D-06.
 No special actions if energy rises.

 Cycle   1  Pass 1  IDiag  1:
 E= -455.129112625925    
 DIIS: error= 2.68D-02 at cycle   1 NSaved=   1.
 NSaved= 1 IEnMin= 1 EnMin= -455.129112625925     IErMin= 1 ErrMin= 2.68D-02
 ErrMax= 2.68D-02  0.00D+00 EMaxC= 1.00D-01 BMatC= 7.72D-03 BMatP= 7.72D-03
 IDIUse=3 WtCom= 7.32D-01 WtEn= 2.68D-01
 Coeff-Com:  0.100D+01
 Coeff-En:   0.100D+01
 Coeff:      0.100D+01
 Gap=     0.801 Goal=   None    Shift=    0.000
 GapD=    0.801 DampG=2.000 DampE=0.500 DampFc=1.0000 IDamp=-1.
 RMSDP=9.39D-03 MaxDP=6.17D-02              OVMax= 0.00D+00

 Cycle   2  Pass 1  IDiag  1:
 E= -455.134789644881     Delta-E=       -0.005677018956 Rises=F Damp=F
 DIIS: error= 2.56D-03 at cycle   2 NSaved=   2.
 NSaved= 2 IEnMin= 2 EnMin= -455.134789644881     IErMin= 2 ErrMin= 2.56D-03
 ErrMax= 2.56D-03  0.00D+00 EMaxC= 1.00D-01 BMatC= 4.27D-05 BMatP= 7.72D-03
 IDIUse=3 WtCom= 9.74D-01 WtEn= 2.56D-02
 Coeff-Com: -0.759D-01 0.108D+01
 Coeff-En:   0.000D+00 0.100D+01
 Coeff:     -0.740D-01 0.107D+01
 Gap=     0.827 Goal=   None    Shift=    0.000
 RMSDP=9.04D-04 MaxDP=5.94D-03 DE=-5.68D-03 OVMax= 0.00D+00

 Cycle   3  Pass 1  IDiag  1:
 E= -455.134835093815     Delta-E=       -0.000045448934 Rises=F Damp=F
 DIIS: error= 8.17D-05 at cycle   3 NSaved=   3.
 NSaved= 3 IEnMin= 3 EnMin= -455.134835093815     IErMin= 3 ErrMin= 8.17D-05
 ErrMax= 8.17D-05  0.00D+00 EMaxC= 1.00D-01 BMatC= 3.75D-08 BMatP= 4.27D-05
 IDIUse=1 WtCom= 1.00D+00 WtEn= 0.00D+00
 Coeff-Com:  0.355D-02-0.623D-01 0.106D+01
 Coeff:      0.355D-02-0.623D-01 0.106D+01
 Gap=     0.827 Goal=   None    Shift=    0.000
 RMSDP=3.08D-05 MaxDP=1.27D-04 DE=-4.54D-05 OVMax= 0.00D+00

 Cycle   4  Pass 1  IDiag  1:
 E= -455.134835157020     Delta-E=       -0.000000063204 Rises=F Damp=F
 DIIS: error= 7.62D-06 at cycle   4 NSaved=   4.
 NSaved= 4 IEnMin= 4 EnMin= -455.134835157020     IErMin= 4 ErrMin= 7.62D-06
 ErrMax= 7.62D-06  0.00D+00 EMaxC= 1.00D-01 BMatC= 6.73D-10 BMatP= 3.75D-08
 IDIUse=1 WtCom= 1.00D+00 WtEn= 0.00D+00
 Coeff-Com: -0.249D-03 0.565D-02-0.200D+00 0.119D+01
 Coeff:     -0.249D-03 0.565D-02-0.200D+00 0.119D+01
 Gap=     0.827 Goal=   None    Shift=    0.000
 RMSDP=5.65D-06 MaxDP=2.57D-05 DE=-6.32D-08 OVMax= 0.00D+00

 Cycle   5  Pass 1  IDiag  1:
 E= -455.134835158204     Delta-E=       -0.000000001185 Rises=F Damp=F
 DIIS: error= 2.85D-07 at cycle   5 NSaved=   5.
 NSaved= 5 IEnMin= 5 EnMin= -455.134835158204     IErMin= 5 ErrMin= 2.85D-07
 ErrMax= 2.85D-07  0.00D+00 EMaxC= 1.00D-01 BMatC= 6.35D-13 BMatP= 6.73D-10
 IDIUse=1 WtCom= 1.00D+00 WtEn= 0.00D+00
 Coeff-Com:  0.824D-05-0.241D-03 0.132D-01-0.101D+00 0.109D+01
 Coeff:      0.824D-05-0.241D-03 0.132D-01-0.101D+00 0.109D+01
 Gap=     0.827 Goal=   None    Shift=    0.000
 RMSDP=2.05D-07 MaxDP=9.47D-07 DE=-1.18D-09 OVMax= 0.00D+00

 Cycle   6  Pass 1  IDiag  1:
 E= -455.134835158206     Delta-E=       -0.000000000001 Rises=F Damp=F
 DIIS: error= 1.05D-09 at cycle   6 NSaved=   6.
 NSaved= 6 IEnMin= 6 EnMin= -455.134835158206     IErMin= 6 ErrMin= 1.05D-09
 ErrMax= 1.05D-09  0.00D+00 EMaxC= 1.00D-01 BMatC= 1.02D-17 BMatP= 6.35D-13
 IDIUse=1 WtCom= 1.00D+00 WtEn= 0.00D+00
 Coeff-Com: -0.366D-06 0.109D-04-0.617D-03 0.471D-02-0.489D-01 0.104D+01
 Coeff:     -0.366D-06 0.109D-04-0.617D-03 0.471D-02-0.489D-01 0.104D+01
 Gap=     0.827 Goal=   None    Shift=    0.000
 RMSDP=6.55D-10 MaxDP=3.82D-09 DE=-1.31D-12 OVMax= 0.00D+00

 SCF Done:  E(RHF) =  -455.134835158     A.U. after    6 cycles
            NFock=  6  Conv=0.66D-09     -V/T= 2.0180
 KE= 4.470880096950D+02 PE=-1.091240818888D+03 EE= 1.819622778893D+02
 Leave Link  502 at Tue Sep  8 00:58:06 2026, MaxMem=   134217728 cpu:               0.1 elap:               0.1
 (Enter /app1/ia32-64/Gaussian/Rev-C.02/g16/l601.exe)
 Copying SCF densities to generalized density rwf, IOpCl= 0 IROHF=0.

 **********************************************************************

            Population analysis using the SCF Density.

 **********************************************************************

 Orbital symmetries:
       Occupied  (SG) (SG) (SG) (PI) (PI) (SG) (SG) (PI) (PI)
       Virtual   (SG)
 The electronic state is 1-SG.
 Alpha  occ. eigenvalues -- -103.72252 -10.40401  -7.84887  -7.84216  -7.84216
 Alpha  occ. eigenvalues --   -1.04362  -0.56448  -0.42315  -0.42315
 Alpha virt. eigenvalues --    0.40398
          Condensed to atoms (all electrons):
               1          2
     1  Cl  16.914814   0.256947
     2  H    0.256947   0.571291
 Mulliken charges:
               1
     1  Cl  -0.171761
     2  H    0.171761
 Sum of Mulliken charges =  -0.00000
 Mulliken charges with hydrogens summed into heavy atoms:
               1
     1  Cl  -0.000000
 Electronic spatial extent (au):  <R**2>=             31.5774
 Charge=             -0.0000 electrons
 Dipole moment (field-independent basis, Debye):
    X=              0.0000    Y=              0.0000    Z=             -1.7343  Tot=              1.7343
 Quadrupole moment (field-independent basis, Debye-Ang):
   XX=            -12.5552   YY=            -12.5552   ZZ=             -9.9878
   XY=              0.0000   XZ=              0.0000   YZ=              0.0000
 Traceless Quadrupole moment (field-independent basis, Debye-Ang):
   XX=             -0.8558   YY=             -0.8558   ZZ=              1.7117
   XY=              0.0000   XZ=              0.0000   YZ=              0.0000
 Octapole moment (field-independent basis, Debye-Ang**2):
  XXX=              0.0000  YYY=              0.0000  ZZZ=             -1.9196  XYY=              0.0000
  XXY=              0.0000  XXZ=             -0.1380  XZZ=              0.0000  YZZ=              0.0000
  YYZ=             -0.1380  XYZ=              0.0000
 Hexadecapole moment (field-independent basis, Debye-Ang**3):
 XXXX=            -10.4206 YYYY=            -10.4206 ZZZZ=            -12.5874 XXXY=              0.0000
 XXXZ=              0.0000 YYYX=              0.0000 YYYZ=              0.0000 ZZZX=              0.0000
 ZZZY=              0.0000 XXYY=             -3.4735 XXZZ=             -4.3254 YYZZ=             -4.3254
 XXYZ=              0.0000 YYXZ=              0.0000 ZZXY=              0.0000
 N-N= 7.055696145600D+00 E-N=-1.091240818867D+03  KE= 4.470880096950D+02
 Symmetry A1   KE= 3.610872543390D+02
 Symmetry A2   KE= 0.000000000000D+00
 Symmetry B1   KE= 4.300037767804D+01
 Symmetry B2   KE= 4.300037767804D+01
 No NMR shielding tensors so no spin-rotation constants.
 Leave Link  601 at Tue Sep  8 00:58:06 2026, MaxMem=   134217728 cpu:               0.0 elap:               0.1
 (Enter /app1/ia32-64/Gaussian/Rev-C.02/g16/l9999.exe)
 Unable to Open any file for archive entry.
 1\1\GINC-CNODE-33-43-49\SP\RHF\STO-3G\Cl1H1\ZHANGXUBO\08-Sep-2026\0\\#
 p hf/sto-3g guess=save geom=connectivity scf=tight\\Calculation of the
  ground state energy with STO-3G basis set\\0,1\Cl\H,1,1.275\\Version=
 ES64L-G16RevC.02\State=1-SG\HF=-455.1348352\RMSD=6.554e-10\Dipole=0.,0
 .,0.6823204\Quadrupole=-0.6362876,-0.6362876,1.2725751,0.,0.,0.\PG=C*V
  [C*(H1Cl1)]\\@
 The archive entry for this job was punched.


 Where a calculator on the ENIAC is equipped with 18,000
 vacuum tubes and weighs 30 tons, computers inthe future
 may  have only 1,000 vacuum tubes and weigh only 1 1/2 tons.
              ---Popular Mechanics, March 1949
 Job cpu time:       0 days  0 hours  0 minutes  0.6 seconds.
 Elapsed time:       0 days  0 hours  0 minutes  0.8 seconds.
 File lengths (MBytes):  RWF=      6 Int=      0 D2E=      0 Chk=      1 Scr=      1
 Normal termination of Gaussian 16 at Tue Sep  8 00:58:06 2026.
