HCl RHF opt+freq / 6-311+G(d) -- used for the orbital energy diagram in 
Freq      RHF                                                         6-311+G(d)          
Number of atoms                            I                2
Info1-9                                    I   N=           9
          11          11        1002           0           0         100
           6           1           2
Full Title                                 C   N=           7
HCl RHF opt+freq / 6-311+G(d) -- used for the orbital energy
 diagram in Ex1 part 2  
Route                                      C   N=           5
#p hf/6-311+g(d) opt=tight freq pop=full scf=tight          
Charge                                     I                0
Multiplicity                               I                1
Number of electrons                        I               18
Number of alpha electrons                  I                9
Number of beta electrons                   I                9
Number of basis functions                  I               33
Number of independent functions            I               33
Number of point charges in /Mol/           I                0
Number of translation vectors              I                0
Atomic numbers                             I   N=           2
          17           1
Nuclear charges                            R   N=           2
  1.70000000E+01  1.00000000E+00
Current cartesian coordinates              R   N=           6
  0.00000000E+00  0.00000000E+00  1.33482544E-01  0.00000000E+00  0.00000000E+00
 -2.26920325E+00
Number of symbols in /Mol/                 I                0
Int Atom Types                             I   N=           2
           0           0
Force Field                                I                0
Atom Types                                 C   N=           2
                        
MM charges                                 R   N=           2
  0.00000000E+00  0.00000000E+00
Integer atomic weights                     I   N=           2
          35           1
Real atomic weights                        R   N=           2
  3.49688527E+01  1.00782504E+00
Atom fragment info                         I   N=           2
           0           0
Atom residue num                           I   N=           2
           0           0
Nuclear spins                              I   N=           2
           3           1
Nuclear ZEff                               R   N=           2
 -1.42400000E+01 -1.00000000E+00
Nuclear ZNuc                               R   N=           2
  1.70000000E+01  1.00000000E+00
Nuclear QMom                               R   N=           2
 -8.16500000E+00  0.00000000E+00
Nuclear GFac                               R   N=           2
  8.21874000E-01  2.79284600E+00
MicOpt                                     I   N=           2
          -1          -1
Number of residues                         I                0
Number of secondary structures             I                0
Redundant internal dimensions              I   N=           4
           1           1           0           0
Redundant internal coordinate indices      I   N=           4
           1           2           0           0
Redundant internal coordinates             R   N=           1
  2.40268579E+00
ZRed-IntVec                                I   N=           1
           0
ZRed-FPVec                                 R   N=           1
  0.00000000E+00
ZRed-Constraint1                           R   N=           1
  2.40268579E+00
ZRed-Constraint2                           R   N=           1
  2.39995218E+00
SymInf integers                            I   N=          26
           1           4           1           1           1          -1
          -1           1          -1           1           1           1
          -1           1           0           0           0           0
           0           0           0           0           0           0
           0           0
RotTr to input orientation                 R   N=          12
  1.00000000E+00  0.00000000E+00  0.00000000E+00  0.00000000E+00 -1.00000000E+00
  0.00000000E+00  0.00000000E+00  0.00000000E+00 -1.00000000E+00  0.00000000E+00
  0.00000000E+00  1.32115737E-01
Number of contracted shells                I               16
Number of primitive shells                 I               30
Pure/Cartesian d shells                    I                0
Pure/Cartesian f shells                    I                0
Highest angular momentum                   I                2
Largest degree of contraction              I                6
Shell types                                I   N=          16
           0           0           0           0           0           0
          -1           1           1           1           1           1
          -2           0           0           0
Number of primitives per shell             I   N=          16
           6           3           1           1           1           1
           1           5           2           1           1           1
           1           3           1           1
Shell to atom map                          I   N=          16
           1           1           1           1           1           1
           1           1           1           1           1           1
           1           2           2           2
Primitive exponents                        R   N=          30
  1.05819000E+05  1.58720000E+04  3.61965000E+03  1.03080000E+03  3.39908000E+02
  1.24538000E+02  1.24538000E+02  4.95135000E+01  2.08056000E+01  6.58346000E+00
  2.56468000E+00  5.59763000E-01  1.83273000E-01  4.83000000E-02  5.89776000E+02
  1.39849000E+02  4.51413000E+01  1.68733000E+01  2.77152000E+00  6.74110000E+00
  2.77152000E+00  1.02387000E+00  3.81368000E-01  1.09437000E-01  7.50000000E-01
  3.38650000E+01  5.09479000E+00  1.15879000E+00  3.25840000E-01  1.02741000E-01
Contraction coefficients                   R   N=          30
  7.38000247E-04  5.71800191E-03  2.94950099E-02  1.17286039E-01  3.62949121E-01
  5.84149195E-01  1.34176973E-01  6.24249876E-01  2.91755942E-01  1.00000000E+00
  1.00000000E+00  1.00000000E+00  1.00000000E+00  1.00000000E+00  3.66556935E-03
  2.83679194E-02  1.24756603E-01  3.39654631E-01  7.47585963E-01 -1.57224381E+00
  9.92388882E-01  1.00000000E+00  1.00000000E+00  1.00000000E+00  1.00000000E+00
  2.54938145E-02  1.90373109E-01  8.52161486E-01  1.00000000E+00  1.00000000E+00
P(S=P) Contraction coefficients            R   N=          30
  0.00000000E+00  0.00000000E+00  0.00000000E+00  0.00000000E+00  0.00000000E+00
  0.00000000E+00  0.00000000E+00  0.00000000E+00  0.00000000E+00  0.00000000E+00
  0.00000000E+00  0.00000000E+00  0.00000000E+00  1.00000000E+00  0.00000000E+00
  0.00000000E+00  0.00000000E+00  0.00000000E+00  0.00000000E+00  0.00000000E+00
  0.00000000E+00  0.00000000E+00  0.00000000E+00  0.00000000E+00  0.00000000E+00
  0.00000000E+00  0.00000000E+00  0.00000000E+00  0.00000000E+00  0.00000000E+00
Coordinates of each shell                  R   N=          48
  0.00000000E+00  0.00000000E+00  1.33482544E-01  0.00000000E+00  0.00000000E+00
  1.33482544E-01  0.00000000E+00  0.00000000E+00  1.33482544E-01  0.00000000E+00
  0.00000000E+00  1.33482544E-01  0.00000000E+00  0.00000000E+00  1.33482544E-01
  0.00000000E+00  0.00000000E+00  1.33482544E-01  0.00000000E+00  0.00000000E+00
  1.33482544E-01  0.00000000E+00  0.00000000E+00  1.33482544E-01  0.00000000E+00
  0.00000000E+00  1.33482544E-01  0.00000000E+00  0.00000000E+00  1.33482544E-01
  0.00000000E+00  0.00000000E+00  1.33482544E-01  0.00000000E+00  0.00000000E+00
  1.33482544E-01  0.00000000E+00  0.00000000E+00  1.33482544E-01  0.00000000E+00
  0.00000000E+00 -2.26920325E+00  0.00000000E+00  0.00000000E+00 -2.26920325E+00
  0.00000000E+00  0.00000000E+00 -2.26920325E+00
Num ILSW                                   I              100
ILSW                                       I   N=         100
           0           0           0           0           2           0
           0           0           0           0           0          -1
           5           0           0           0           2           0
           0           0           0           0           1           0
           1           0           0           0           0           0
           0           0      100000           0          -1           0
           0           0           0           0           0           0
           0           0           0           1           0           0
           0 -2000000000           1           0           0           0
           0           0           4          52           0           0
           0           0           0           0           0           0
           0           0           0           2           0           1
           0           0           0           0           0           0
           0           0           0           0           0           0
           0           0           0           0           0           0
           0           0           0           0           0           0
           0           0           0           0
Num RLSW                                   I               52
RLSW                                       R   N=          52
  1.00000000E+00  1.00000000E+00  1.00000000E+00  1.00000000E+00  1.00000000E+00
  0.00000000E+00  0.00000000E+00  1.00000000E+00  0.00000000E+00  0.00000000E+00
  0.00000000E+00  0.00000000E+00  1.00000000E+00  0.00000000E+00  0.00000000E+00
  0.00000000E+00  0.00000000E+00  1.00000000E+00  0.00000000E+00  0.00000000E+00
  0.00000000E+00  0.00000000E+00  1.00000000E+00  0.00000000E+00  0.00000000E+00
  0.00000000E+00  0.00000000E+00  1.00000000E+00  0.00000000E+00  0.00000000E+00
  0.00000000E+00  0.00000000E+00  1.00000000E+00  0.00000000E+00  0.00000000E+00
  0.00000000E+00  0.00000000E+00  0.00000000E+00  1.00000000E+00  1.00000000E+00
  0.00000000E+00  1.00000000E+00  0.00000000E+00  0.00000000E+00  0.00000000E+00
  0.00000000E+00  0.00000000E+00  0.00000000E+00  0.00000000E+00  0.00000000E+00
  0.00000000E+00  0.00000000E+00
MxBond                                     I                1
NBond                                      I   N=           2
           1           1
IBond                                      I   N=           2
           2           1
RBond                                      R   N=           2
  1.00000000E+00  1.00000000E+00
Virial Ratio                               R      1.999916834293910E+00
SCF Energy                                 R     -4.600871703394052E+02
Total Energy                               R     -4.600871703394052E+02
RMS Force                                  R      1.992588002743687E-07
RMS Density                                R      1.016321711261496E-09
NImag                                      I                0
Job Status                                 I                1
Nuclear derivative order                   I                2
Thermal Energy                             R     -4.600777324685371E+02
Thermal Enthalpy                           R     -4.600767882837235E+02
Thermal Free Energy                        R     -4.600979589129319E+02
External E-field                           R   N=          35
  0.00000000E+00  0.00000000E+00  0.00000000E+00  0.00000000E+00  0.00000000E+00
  0.00000000E+00  0.00000000E+00  0.00000000E+00  0.00000000E+00  0.00000000E+00
  0.00000000E+00  0.00000000E+00  0.00000000E+00  0.00000000E+00  0.00000000E+00
  0.00000000E+00  0.00000000E+00  0.00000000E+00  0.00000000E+00  0.00000000E+00
  0.00000000E+00  0.00000000E+00  0.00000000E+00  0.00000000E+00  0.00000000E+00
  0.00000000E+00  0.00000000E+00  0.00000000E+00  0.00000000E+00  0.00000000E+00
  0.00000000E+00  0.00000000E+00  0.00000000E+00  0.00000000E+00  0.00000000E+00
IOpCl                                      I                0
IROHF                                      I                0
Alpha Orbital Energies                     R   N=          33
 -1.04849721E+02 -1.05764964E+01 -8.04537904E+00 -8.04148475E+00 -8.04148475E+00
 -1.12190376E+00 -6.30648226E-01 -4.77298932E-01 -4.77298932E-01  9.17203193E-02
  1.22012338E-01  1.25371687E-01  1.25371687E-01  1.68352184E-01  4.71081213E-01
  5.88664399E-01  5.92439739E-01  5.92439739E-01  1.01540430E+00  1.11153990E+00
  1.11153990E+00  1.13818951E+00  1.13818951E+00  1.37145025E+00  2.45552242E+00
  2.59063175E+00  2.59063175E+00  2.80946300E+00  1.01823286E+01  2.66084998E+01
  2.66084998E+01  2.67558673E+01  2.19008368E+02
Alpha MO coefficients                      R   N=        1089
  4.11732314E-01  6.54663359E-01  1.20789148E-02 -8.98962757E-04  2.02725506E-04
 -1.27298154E-04  1.16937462E-05  0.00000000E+00  0.00000000E+00 -5.64653308E-06
  0.00000000E+00  0.00000000E+00 -1.08155723E-04  0.00000000E+00  0.00000000E+00
 -2.56874457E-05  0.00000000E+00  0.00000000E+00  1.03279617E-04  0.00000000E+00
  0.00000000E+00 -6.33764270E-05  0.00000000E+00  0.00000000E+00  4.03563758E-05
  6.24718202E-06  0.00000000E+00  0.00000000E+00  3.98777986E-17  0.00000000E+00
 -7.47295165E-06 -4.86336471E-06  3.33451985E-05 -1.21939931E-01 -3.31484878E-01
  5.11794219E-01  6.05771327E-01  4.25525876E-02 -1.09825470E-02  1.82134540E-03
  0.00000000E+00  0.00000000E+00  3.94347799E-04  0.00000000E+00  0.00000000E+00
 -3.78816685E-03  0.00000000E+00  0.00000000E+00  1.35486668E-03  0.00000000E+00
  0.00000000E+00 -1.14134003E-03  0.00000000E+00  0.00000000E+00  1.33472593E-04
  0.00000000E+00  0.00000000E+00  4.93688377E-04  3.07370615E-04  0.00000000E+00
  0.00000000E+00 -1.60826031E-16  0.00000000E+00  3.04262090E-05  4.65329474E-05
  1.58815681E-03 -7.01045253E-04 -1.94945575E-03  3.65889664E-03  2.91241651E-03
 -8.54590250E-04  3.92351497E-05 -3.43534428E-04  0.00000000E+00  0.00000000E+00
 -5.60148359E-04  0.00000000E+00  0.00000000E+00  8.02297230E-01  0.00000000E+00
  0.00000000E+00 -2.77334898E-01  0.00000000E+00  0.00000000E+00  5.19101735E-02
  0.00000000E+00  0.00000000E+00 -3.29064730E-03  0.00000000E+00  0.00000000E+00
  1.79932799E-03 -5.83976413E-04  0.00000000E+00  0.00000000E+00  5.54622551E-17
  0.00000000E+00 -4.47174794E-04 -1.38864500E-04  5.70145801E-04  0.00000000E+00
  0.00000000E+00  0.00000000E+00  0.00000000E+00  0.00000000E+00  0.00000000E+00
  0.00000000E+00  0.00000000E+00 -5.11668982E-04  0.00000000E+00  0.00000000E+00
  8.03170100E-01  0.00000000E+00  0.00000000E+00 -2.77777796E-01  0.00000000E+00
  0.00000000E+00  4.92956670E-02  0.00000000E+00  0.00000000E+00 -2.41903625E-03
  0.00000000E+00  0.00000000E+00  1.23407841E-03  0.00000000E+00  0.00000000E+00
  0.00000000E+00 -3.48946061E-04  0.00000000E+00  0.00000000E+00  0.00000000E+00
  0.00000000E+00  0.00000000E+00  0.00000000E+00  0.00000000E+00  0.00000000E+00
  0.00000000E+00  0.00000000E+00  0.00000000E+00  0.00000000E+00 -5.11668982E-04
  0.00000000E+00  0.00000000E+00  8.03170100E-01  0.00000000E+00  0.00000000E+00
 -2.77777796E-01  0.00000000E+00  0.00000000E+00  4.92956670E-02  0.00000000E+00
  0.00000000E+00 -2.41903625E-03  0.00000000E+00  0.00000000E+00  1.23407841E-03
  0.00000000E+00  0.00000000E+00  0.00000000E+00 -3.48946061E-04  0.00000000E+00
  0.00000000E+00  0.00000000E+00  0.00000000E+00  0.00000000E+00  0.00000000E+00
  3.46725853E-02  1.00227716E-01 -1.97248428E-01 -3.98657455E-01  5.99038725E-01
  5.29126234E-01 -1.03451964E-03  0.00000000E+00  0.00000000E+00 -7.21797346E-03
  0.00000000E+00  0.00000000E+00  2.92210787E-02  0.00000000E+00  0.00000000E+00
 -1.07056401E-02  0.00000000E+00  0.00000000E+00 -2.33392067E-02  0.00000000E+00
  0.00000000E+00 -7.80235131E-02  0.00000000E+00  0.00000000E+00 -8.08299835E-03
  3.12376487E-02  0.00000000E+00  0.00000000E+00  2.27356652E-16  0.00000000E+00
  9.24929645E-02  9.46265621E-02 -1.41257583E-02  1.07847500E-02  3.15908221E-02
 -6.57247385E-02 -1.20762083E-01  1.89687193E-01  2.65470833E-01  3.55465592E-02
  0.00000000E+00  0.00000000E+00 -1.47883165E-02  0.00000000E+00  0.00000000E+00
 -1.80110661E-01  0.00000000E+00  0.00000000E+00  6.84738151E-02  0.00000000E+00
  0.00000000E+00  1.90847081E-01  0.00000000E+00  0.00000000E+00  4.58680164E-01
  0.00000000E+00  0.00000000E+00  1.48789694E-01 -7.05760988E-02  0.00000000E+00
  0.00000000E+00 -2.11740980E-16  0.00000000E+00 -1.59196003E-01 -2.81861734E-01
 -8.10525599E-02  0.00000000E+00  0.00000000E+00  0.00000000E+00  0.00000000E+00
  0.00000000E+00  0.00000000E+00  0.00000000E+00 -3.47243199E-02  0.00000000E+00
  0.00000000E+00 -2.19188351E-01  0.00000000E+00  0.00000000E+00  8.48131236E-02
  0.00000000E+00  0.00000000E+00  2.42946408E-01  0.00000000E+00  0.00000000E+00
  5.92665572E-01  0.00000000E+00  0.00000000E+00  3.69230072E-01  0.00000000E+00
  0.00000000E+00  0.00000000E+00 -1.58105961E-02  0.00000000E+00  0.00000000E+00
  0.00000000E+00  0.00000000E+00  0.00000000E+00  0.00000000E+00  0.00000000E+00
  0.00000000E+00  0.00000000E+00  0.00000000E+00  0.00000000E+00  0.00000000E+00
  0.00000000E+00  0.00000000E+00 -3.47243199E-02  0.00000000E+00  0.00000000E+00
 -2.19188351E-01  0.00000000E+00  0.00000000E+00  8.48131236E-02  0.00000000E+00
  0.00000000E+00  2.42946408E-01  0.00000000E+00  0.00000000E+00  5.92665572E-01
  0.00000000E+00  0.00000000E+00  3.69230072E-01  0.00000000E+00  0.00000000E+00
  0.00000000E+00 -1.58105961E-02  0.00000000E+00  0.00000000E+00  0.00000000E+00
  0.00000000E+00  0.00000000E+00 -8.30499179E-03 -2.49034656E-02  5.65554223E-02
  7.82679287E-02 -4.42244324E-02 -7.63639910E-01  1.29353779E+00  0.00000000E+00
  0.00000000E+00 -9.09005732E-01  0.00000000E+00  0.00000000E+00 -5.40070427E-02
  0.00000000E+00  0.00000000E+00  2.02651046E-02  0.00000000E+00  0.00000000E+00
  6.32438300E-02  0.00000000E+00  0.00000000E+00  1.50244053E-01  0.00000000E+00
  0.00000000E+00  4.16748640E-01 -1.76414483E-02  0.00000000E+00  0.00000000E+00
  8.57968711E-16  0.00000000E+00  3.86172534E-03  1.60026822E-01 -2.31941837E-01
 -6.46233694E-03 -1.93534072E-02  4.37609455E-02  6.28587169E-02 -5.76955882E-02
 -5.29638858E-01  7.61555982E-01  0.00000000E+00  0.00000000E+00  1.29823037E+00
  0.00000000E+00  0.00000000E+00  3.02193111E-02  0.00000000E+00  0.00000000E+00
 -8.57183556E-03  0.00000000E+00  0.00000000E+00 -6.04734548E-02  0.00000000E+00
  0.00000000E+00  3.13563016E-02  0.00000000E+00  0.00000000E+00 -6.54815410E-01
  1.66216784E-02  0.00000000E+00  0.00000000E+00  1.36147760E-16  0.00000000E+00
  3.20484991E-02  1.08311715E-02  8.45421693E-02  0.00000000E+00  0.00000000E+00
  0.00000000E+00  0.00000000E+00  0.00000000E+00  0.00000000E+00  0.00000000E+00
  1.54447739E+00  0.00000000E+00  0.00000000E+00  5.84185795E-02  0.00000000E+00
  0.00000000E+00 -1.88974795E-02  0.00000000E+00  0.00000000E+00 -9.97612332E-02
  0.00000000E+00  0.00000000E+00 -2.71890048E-02  0.00000000E+00  0.00000000E+00
 -8.36875984E-01  0.00000000E+00  0.00000000E+00  0.00000000E+00  3.70641664E-03
  0.00000000E+00  0.00000000E+00  0.00000000E+00  0.00000000E+00  0.00000000E+00
  0.00000000E+00  0.00000000E+00  0.00000000E+00  0.00000000E+00  0.00000000E+00
  0.00000000E+00  0.00000000E+00  0.00000000E+00  0.00000000E+00  1.54447739E+00
  0.00000000E+00  0.00000000E+00  5.84185795E-02  0.00000000E+00  0.00000000E+00
 -1.88974795E-02  0.00000000E+00  0.00000000E+00 -9.97612332E-02  0.00000000E+00
  0.00000000E+00 -2.71890048E-02  0.00000000E+00  0.00000000E+00 -8.36875984E-01
  0.00000000E+00  0.00000000E+00  0.00000000E+00  3.70641664E-03  0.00000000E+00
  0.00000000E+00  0.00000000E+00  0.00000000E+00  0.00000000E+00 -4.76257747E-03
 -1.43066022E-02  3.27085806E-02  4.37404817E-02 -7.51101268E-03 -6.03380695E-01
 -1.73333622E+00  0.00000000E+00  0.00000000E+00  5.93307636E-01  0.00000000E+00
  0.00000000E+00 -9.09689004E-02  0.00000000E+00  0.00000000E+00  3.49371278E-02
  0.00000000E+00  0.00000000E+00  1.06434191E-01  0.00000000E+00  0.00000000E+00
  2.48747187E-01  0.00000000E+00  0.00000000E+00  1.13028617E+00  9.93041918E-02
  0.00000000E+00  0.00000000E+00 -3.18095613E-16  0.00000000E+00  1.28807060E-01
  1.84182974E-01  2.70902602E+00  2.12427197E-03  6.42856896E-03 -1.51249171E-02
 -1.92239556E-02 -1.77423615E-02 -9.63778325E-04 -1.34524281E+00  0.00000000E+00
  0.00000000E+00  1.42782521E+00  0.00000000E+00  0.00000000E+00 -3.76895305E-04
  0.00000000E+00  0.00000000E+00  2.52037476E-03  0.00000000E+00  0.00000000E+00
 -1.40558574E-02  0.00000000E+00  0.00000000E+00  1.12908006E-01  0.00000000E+00
  0.00000000E+00 -9.71701342E-01 -1.76092926E-01  0.00000000E+00  0.00000000E+00
 -3.32743649E-16  0.00000000E+00 -8.99362820E-02 -1.54564385E+00  2.82778701E+00
  1.00619621E-03  2.49191731E-03 -1.31896176E-03 -2.58094579E-02  7.02922402E-02
 -2.71706064E-01 -1.00234489E+00  0.00000000E+00  0.00000000E+00 -4.63542008E-01
  0.00000000E+00  0.00000000E+00  1.48951050E-01  0.00000000E+00  0.00000000E+00
 -7.30354467E-02  0.00000000E+00  0.00000000E+00 -5.92479142E-02  0.00000000E+00
  0.00000000E+00 -1.24188220E+00  0.00000000E+00  0.00000000E+00  2.25013547E+00
 -4.23743252E-02  0.00000000E+00  0.00000000E+00 -1.43278214E-15  0.00000000E+00
 -8.28164862E-02 -7.40160387E-01  2.12959343E+00  0.00000000E+00  0.00000000E+00
  0.00000000E+00  0.00000000E+00  0.00000000E+00  0.00000000E+00  0.00000000E+00
  0.00000000E+00 -1.18157214E+00  0.00000000E+00  0.00000000E+00  1.29749425E-01
  0.00000000E+00  0.00000000E+00 -6.61813276E-02  0.00000000E+00  0.00000000E+00
 -4.53109024E-02  0.00000000E+00  0.00000000E+00 -1.14554197E+00  0.00000000E+00
  0.00000000E+00  2.19903847E+00  0.00000000E+00  0.00000000E+00  0.00000000E+00
  1.13857016E-02  0.00000000E+00  0.00000000E+00  0.00000000E+00  0.00000000E+00
  0.00000000E+00  0.00000000E+00  0.00000000E+00  0.00000000E+00  0.00000000E+00
  0.00000000E+00  0.00000000E+00  0.00000000E+00 -1.18157214E+00  0.00000000E+00
  0.00000000E+00  1.29749425E-01  0.00000000E+00  0.00000000E+00 -6.61813276E-02
  0.00000000E+00  0.00000000E+00 -4.53109024E-02  0.00000000E+00  0.00000000E+00
 -1.14554197E+00  0.00000000E+00  0.00000000E+00  2.19903847E+00  0.00000000E+00
  0.00000000E+00  0.00000000E+00  1.13857016E-02  0.00000000E+00  0.00000000E+00
  0.00000000E+00  0.00000000E+00  0.00000000E+00  0.00000000E+00 -3.47700129E-02
 -9.51631131E-02  1.40600018E-01  6.91531295E-01 -2.44170308E+00  2.67031170E+00
 -5.52403105E-01  0.00000000E+00  0.00000000E+00 -1.70746242E-01  0.00000000E+00
  0.00000000E+00 -1.63078350E-02  0.00000000E+00  0.00000000E+00  2.89773551E-03
  0.00000000E+00  0.00000000E+00  4.90055190E-02  0.00000000E+00  0.00000000E+00
 -4.22265850E-02  0.00000000E+00  0.00000000E+00 -1.21483894E-01 -1.71371962E-01
  0.00000000E+00  0.00000000E+00 -7.26889440E-15  0.00000000E+00  3.20747216E-02
 -6.99699812E-03 -5.56511226E-01  0.00000000E+00  0.00000000E+00  0.00000000E+00
  0.00000000E+00  0.00000000E+00  0.00000000E+00  0.00000000E+00  0.00000000E+00
  5.39985366E-03  0.00000000E+00  0.00000000E+00 -6.54502204E-03  0.00000000E+00
  0.00000000E+00  2.67824981E-03  0.00000000E+00  0.00000000E+00  1.16839800E-02
  0.00000000E+00  0.00000000E+00  1.51988721E-02  0.00000000E+00  0.00000000E+00
 -1.20218616E-02  0.00000000E+00  0.00000000E+00  0.00000000E+00  9.99796706E-01
  0.00000000E+00  0.00000000E+00  0.00000000E+00  0.00000000E+00  0.00000000E+00
  0.00000000E+00  0.00000000E+00  0.00000000E+00  0.00000000E+00  0.00000000E+00
  0.00000000E+00  0.00000000E+00  5.39985366E-03  0.00000000E+00  0.00000000E+00
 -6.54502204E-03  0.00000000E+00  0.00000000E+00  2.67824981E-03  0.00000000E+00
  0.00000000E+00  1.16839800E-02  0.00000000E+00  0.00000000E+00  1.51988721E-02
  0.00000000E+00  0.00000000E+00 -1.20218616E-02  0.00000000E+00  0.00000000E+00
  0.00000000E+00  9.99796706E-01  0.00000000E+00  0.00000000E+00  0.00000000E+00
  0.00000000E+00  0.00000000E+00  0.00000000E+00 -2.30931746E-16 -5.96928055E-16
  6.77655123E-16  5.13644585E-15 -1.81735978E-14  2.21362847E-14 -5.61963597E-15
  0.00000000E+00  0.00000000E+00 -1.06090755E-15  0.00000000E+00  0.00000000E+00
 -2.27991219E-16  0.00000000E+00  0.00000000E+00  2.87941613E-18  0.00000000E+00
  0.00000000E+00  6.87795516E-16  0.00000000E+00  0.00000000E+00 -1.69966814E-15
  0.00000000E+00  0.00000000E+00 -9.45911225E-16 -3.97360473E-16  0.00000000E+00
  0.00000000E+00  1.00000000E+00  0.00000000E+00  3.59402276E-16 -2.58067120E-15
 -3.82452705E-15  0.00000000E+00  0.00000000E+00  0.00000000E+00  0.00000000E+00
  0.00000000E+00  0.00000000E+00  0.00000000E+00  0.00000000E+00  0.00000000E+00
  0.00000000E+00  0.00000000E+00  0.00000000E+00  0.00000000E+00  0.00000000E+00
  0.00000000E+00  0.00000000E+00  0.00000000E+00  0.00000000E+00  0.00000000E+00
  0.00000000E+00  0.00000000E+00  0.00000000E+00  0.00000000E+00  0.00000000E+00
  0.00000000E+00  0.00000000E+00  0.00000000E+00  0.00000000E+00  0.00000000E+00
  1.00000000E+00  0.00000000E+00  0.00000000E+00  0.00000000E+00  5.96915478E-03
  1.64391738E-02 -2.49054077E-02 -1.23226846E-01  5.53355511E-01 -8.34071232E-01
  4.47546406E-01  0.00000000E+00  0.00000000E+00 -4.22241910E-01  0.00000000E+00
  0.00000000E+00 -2.59147514E-02  0.00000000E+00  0.00000000E+00  6.65052866E-03
  0.00000000E+00  0.00000000E+00  5.58072563E-02  0.00000000E+00  0.00000000E+00
  9.70381394E-02  0.00000000E+00  0.00000000E+00  5.72049717E-01 -1.04308643E+00
  0.00000000E+00  0.00000000E+00  1.03590766E-15  0.00000000E+00 -6.16147116E-02
  1.32911674E+00 -8.45424140E-01 -7.30794405E-04 -1.04533880E-03 -7.40653629E-03
  5.04382801E-02 -1.47101490E-01  4.64299616E-02  6.82774535E-01  0.00000000E+00
  0.00000000E+00 -1.36711142E-01  0.00000000E+00  0.00000000E+00  3.78722928E-01
  0.00000000E+00  0.00000000E+00 -9.68822344E-02  0.00000000E+00  0.00000000E+00
 -1.43075236E+00  0.00000000E+00  0.00000000E+00  1.65513229E+00  0.00000000E+00
  0.00000000E+00 -7.31385912E-01 -3.94125545E-02  0.00000000E+00  0.00000000E+00
  9.46873131E-16  0.00000000E+00 -1.04886731E+00  1.93479568E+00 -1.73639495E+00
  0.00000000E+00  0.00000000E+00  0.00000000E+00  0.00000000E+00  0.00000000E+00
  0.00000000E+00  0.00000000E+00  4.98428629E-01  0.00000000E+00  0.00000000E+00
  5.12497858E-01  0.00000000E+00  0.00000000E+00 -1.27390126E-01  0.00000000E+00
  0.00000000E+00 -1.97532930E+00  0.00000000E+00  0.00000000E+00  2.05289659E+00
  0.00000000E+00  0.00000000E+00 -1.14139661E+00  0.00000000E+00  0.00000000E+00
  0.00000000E+00  3.61529176E-03  0.00000000E+00  0.00000000E+00  0.00000000E+00
  0.00000000E+00  0.00000000E+00  0.00000000E+00  0.00000000E+00  0.00000000E+00
  0.00000000E+00  0.00000000E+00  0.00000000E+00  0.00000000E+00  0.00000000E+00
  0.00000000E+00  4.98428629E-01  0.00000000E+00  0.00000000E+00  5.12497858E-01
  0.00000000E+00  0.00000000E+00 -1.27390126E-01  0.00000000E+00  0.00000000E+00
 -1.97532930E+00  0.00000000E+00  0.00000000E+00  2.05289659E+00  0.00000000E+00
  0.00000000E+00 -1.14139661E+00  0.00000000E+00  0.00000000E+00  0.00000000E+00
  3.61529176E-03  0.00000000E+00  0.00000000E+00  0.00000000E+00  0.00000000E+00
  0.00000000E+00  8.32033806E-05  1.45935363E-03 -1.39873411E-02  4.24378124E-02
 -1.35841954E-01  2.28046722E-02  3.10694182E-01  0.00000000E+00  0.00000000E+00
 -6.19718570E-01  0.00000000E+00  0.00000000E+00 -3.53175039E-01  0.00000000E+00
  0.00000000E+00  8.48471566E-02  0.00000000E+00  0.00000000E+00  1.42268532E+00
  0.00000000E+00  0.00000000E+00 -1.40260661E+00  0.00000000E+00  0.00000000E+00
  9.48503794E-01  8.55747533E-02  0.00000000E+00  0.00000000E+00 -9.46967857E-17
  0.00000000E+00 -1.25744035E+00  1.56993855E+00 -9.65278877E-01  1.15921243E-01
  4.82352121E-01 -2.64548659E+00  3.08088706E+00 -1.69140364E+00  9.55906596E-01
 -1.55099532E-01  0.00000000E+00  0.00000000E+00 -2.96073858E-02  0.00000000E+00
  0.00000000E+00 -2.05365005E-03  0.00000000E+00  0.00000000E+00 -3.31669838E-03
  0.00000000E+00  0.00000000E+00 -2.34825509E-03  0.00000000E+00  0.00000000E+00
  9.53995008E-03  0.00000000E+00  0.00000000E+00 -7.71631103E-02  1.06887072E-02
  0.00000000E+00  0.00000000E+00  2.62492308E-16  0.00000000E+00  5.07398526E-03
 -9.54029868E-03 -1.62627096E-01  0.00000000E+00  0.00000000E+00  0.00000000E+00
  0.00000000E+00  0.00000000E+00  0.00000000E+00  0.00000000E+00  0.00000000E+00
 -2.51916050E-01  0.00000000E+00  0.00000000E+00 -2.21937701E+00  0.00000000E+00
  0.00000000E+00 -1.76400805E+00  0.00000000E+00  0.00000000E+00  2.40316943E+00
  0.00000000E+00  0.00000000E+00 -1.23216624E+00  0.00000000E+00  0.00000000E+00
  5.69543859E-01  0.00000000E+00  0.00000000E+00  0.00000000E+00  8.47918519E-05
  0.00000000E+00  0.00000000E+00  0.00000000E+00  0.00000000E+00  0.00000000E+00
  0.00000000E+00  0.00000000E+00  0.00000000E+00  0.00000000E+00  0.00000000E+00
  0.00000000E+00  0.00000000E+00 -2.51916050E-01  0.00000000E+00  0.00000000E+00
 -2.21937701E+00  0.00000000E+00  0.00000000E+00 -1.76400805E+00  0.00000000E+00
  0.00000000E+00  2.40316943E+00  0.00000000E+00  0.00000000E+00 -1.23216624E+00
  0.00000000E+00  0.00000000E+00  5.69543859E-01  0.00000000E+00  0.00000000E+00
  0.00000000E+00  8.47918519E-05  0.00000000E+00  0.00000000E+00  0.00000000E+00
  0.00000000E+00  0.00000000E+00  0.00000000E+00 -3.54468147E-04 -9.05870988E-04
  6.22369117E-03 -8.06019314E-03 -4.23063617E-03  8.93312759E-04 -1.22320111E-01
  0.00000000E+00  0.00000000E+00 -1.90897249E-01  0.00000000E+00  0.00000000E+00
 -2.23357919E+00  0.00000000E+00  0.00000000E+00 -1.76977988E+00  0.00000000E+00
  0.00000000E+00  2.44819390E+00  0.00000000E+00  0.00000000E+00 -1.30403175E+00
  0.00000000E+00  0.00000000E+00  6.13063679E-01  2.47716903E-02  0.00000000E+00
  0.00000000E+00 -3.78981258E-16  0.00000000E+00 -6.37975099E-02 -8.73048230E-02
  2.31757142E-01 -1.54192861E+00  1.91407295E+00 -1.43399698E+00  9.57061998E-01
 -3.84127978E-01  2.12850151E-01 -3.43901149E-02  0.00000000E+00  0.00000000E+00
 -6.87247597E-03  0.00000000E+00  0.00000000E+00  8.31741590E-04  0.00000000E+00
  0.00000000E+00  5.05344575E-04  0.00000000E+00  0.00000000E+00 -1.76244054E-03
  0.00000000E+00  0.00000000E+00  3.12991573E-03  0.00000000E+00  0.00000000E+00
 -1.81754755E-02  1.93562723E-03  0.00000000E+00  0.00000000E+00 -8.02453836E-17
  0.00000000E+00 -3.94661666E-04 -3.21493793E-04 -3.86224907E-02
Orthonormal basis                          R   N=        1089
  1.90350641E-02  3.57122648E-02  6.59305330E-02  8.69153166E-02  1.29680302E-01
  1.57527904E-01  1.39197171E-01  0.00000000E+00  0.00000000E+00 -1.19204664E-01
  0.00000000E+00  0.00000000E+00 -3.40828727E-02  0.00000000E+00  0.00000000E+00
 -8.91626539E-03  0.00000000E+00  0.00000000E+00 -7.72371839E-02  0.00000000E+00
  0.00000000E+00 -1.24381130E-01  0.00000000E+00  0.00000000E+00 -1.48674970E-01
  2.61024163E-02  0.00000000E+00  0.00000000E+00 -1.50180965E-19  0.00000000E+00
  1.28081429E-01  2.04758811E-01  2.08673882E-01  1.06821310E-01  1.65028899E-01
  2.21811638E-01  2.33097163E-01  2.04266008E-01  1.57452156E-01  9.80335199E-02
  0.00000000E+00  0.00000000E+00  1.39504547E-01  0.00000000E+00  0.00000000E+00
  7.83547871E-02  0.00000000E+00  0.00000000E+00  7.78573565E-03  0.00000000E+00
  0.00000000E+00  1.39484357E-01  0.00000000E+00  0.00000000E+00  1.79078102E-01
  0.00000000E+00  0.00000000E+00  1.78672921E-01 -1.77787474E-02  0.00000000E+00
  0.00000000E+00  6.13199377E-19  0.00000000E+00 -7.43185093E-02 -7.45434871E-02
 -1.68768298E-02  2.43076778E-01  2.96980529E-01  2.34459557E-01  1.45406846E-01
 -6.36828727E-02 -1.89482920E-01 -2.17972349E-01  0.00000000E+00  0.00000000E+00
 -6.68497539E-02  0.00000000E+00  0.00000000E+00 -1.78712520E-01  0.00000000E+00
  0.00000000E+00  3.17191883E-02  0.00000000E+00  0.00000000E+00 -2.19156640E-01
  0.00000000E+00  0.00000000E+00 -1.90004225E-01  0.00000000E+00  0.00000000E+00
 -1.07388420E-01 -2.52155530E-02  0.00000000E+00  0.00000000E+00 -5.35700045E-19
  0.00000000E+00 -4.23588376E-02 -5.93374099E-02 -1.29149408E-01  1.66548835E-01
  1.61006038E-01  4.16334367E-02 -3.40992755E-02 -1.25751116E-01 -1.34330158E-01
 -1.02903942E-01  0.00000000E+00  0.00000000E+00 -2.16707012E-01  0.00000000E+00
  0.00000000E+00  4.68738248E-01  0.00000000E+00  0.00000000E+00 -3.01513735E-01
  0.00000000E+00  0.00000000E+00  2.82626359E-01  0.00000000E+00  0.00000000E+00
  6.96193611E-02  0.00000000E+00  0.00000000E+00 -1.80784026E-01  5.10641850E-02
  0.00000000E+00  0.00000000E+00 -1.39563958E-18  0.00000000E+00  8.37128326E-02
  6.10989190E-02  4.59613224E-02  3.50643356E-01  2.40398440E-01 -1.31479828E-01
 -2.44656930E-01 -1.82155486E-01 -1.35695684E-02  1.04477247E-01  0.00000000E+00
  0.00000000E+00  2.05622691E-02  0.00000000E+00  0.00000000E+00 -1.72672290E-01
  0.00000000E+00  0.00000000E+00  4.50858538E-01  0.00000000E+00  0.00000000E+00
  2.17552886E-01  0.00000000E+00  0.00000000E+00  1.99445137E-01  0.00000000E+00
  0.00000000E+00  5.80054177E-02  2.59754659E-01  0.00000000E+00  0.00000000E+00
  1.01174076E-17  0.00000000E+00  2.13510886E-01  1.23802730E-01  8.25856316E-02
  8.91286758E-02  5.46821824E-02 -4.53190073E-02 -6.81417094E-02 -2.43562141E-02
  3.07753026E-02  2.48412926E-02  0.00000000E+00  0.00000000E+00  4.19099797E-01
  0.00000000E+00  0.00000000E+00  8.09061629E-02  0.00000000E+00  0.00000000E+00
 -3.81220651E-01  0.00000000E+00  0.00000000E+00 -2.54351803E-01  0.00000000E+00
  0.00000000E+00 -1.68882322E-01  0.00000000E+00  0.00000000E+00  2.61321174E-01
  4.11965460E-01  0.00000000E+00  0.00000000E+00  1.70458437E-17  0.00000000E+00
  3.08016620E-01  1.33051677E-01 -1.42885127E-01 -3.73516513E-01 -2.00036134E-01
  2.38813943E-01  3.04485091E-01  8.80286868E-02 -1.46779230E-01 -3.10750740E-01
  0.00000000E+00  0.00000000E+00 -8.68044757E-02  0.00000000E+00  0.00000000E+00
 -1.34448450E-02  0.00000000E+00  0.00000000E+00  2.39385593E-01  0.00000000E+00
  0.00000000E+00  1.84194238E-01  0.00000000E+00  0.00000000E+00  7.76097024E-02
  0.00000000E+00  0.00000000E+00 -7.51499799E-02  4.65386634E-01  0.00000000E+00
  0.00000000E+00 -2.63559670E-17  0.00000000E+00  2.44873173E-01  8.34964905E-02
 -1.41687606E-01 -4.62163423E-16  1.60170133E-16  4.95248237E-16  8.28969629E-17
 -6.69288040E-16 -3.41274771E-16  4.54770080E-16  0.00000000E+00  0.00000000E+00
  2.32705488E-16  0.00000000E+00  0.00000000E+00 -1.01496196E-16  0.00000000E+00
  0.00000000E+00 -7.24780675E-17  0.00000000E+00  0.00000000E+00  4.10483100E-17
  0.00000000E+00  0.00000000E+00  8.36367078E-18  0.00000000E+00  0.00000000E+00
  3.09638463E-17 -6.03826861E-18  0.00000000E+00  0.00000000E+00  1.00000000E+00
  0.00000000E+00 -1.65940602E-18 -1.02997447E-16  4.83564819E-16  6.44266462E-02
  1.33934465E-03 -7.60572057E-02 -3.94110386E-02  4.39988481E-02  5.14821416E-02
  1.64940073E-01  0.00000000E+00  0.00000000E+00 -3.12757220E-01  0.00000000E+00
  0.00000000E+00 -1.03048743E-01  0.00000000E+00  0.00000000E+00 -1.80945228E-01
  0.00000000E+00  0.00000000E+00 -1.66126377E-01  0.00000000E+00  0.00000000E+00
  1.14252956E-01  0.00000000E+00  0.00000000E+00 -5.73102810E-02  7.61524314E-01
  0.00000000E+00  0.00000000E+00  1.28637127E-17  0.00000000E+00 -6.96438401E-01
 -2.19750326E-01  1.68499225E-01  4.71309700E-01 -1.46833102E-01 -5.78927664E-01
 -7.48435727E-02  7.87676685E-01  3.50867581E-01 -6.28992648E-01  0.00000000E+00
  0.00000000E+00 -1.21706887E-01  0.00000000E+00  0.00000000E+00  4.25391962E-02
  0.00000000E+00  0.00000000E+00  5.35080088E-02  0.00000000E+00  0.00000000E+00
  4.39640841E-02  0.00000000E+00  0.00000000E+00 -5.98642779E-02  0.00000000E+00
  0.00000000E+00 -1.18658010E-01  2.64502532E-02  0.00000000E+00  0.00000000E+00
  1.60773122E-15  0.00000000E+00  2.29433318E-02 -1.82064777E-02 -3.02343381E-01
 -1.77068369E-02  1.33666012E-02  1.53936963E-02 -1.08434143E-02  6.32690674E-03
  3.27264293E-02 -1.47762360E-01  0.00000000E+00  0.00000000E+00 -6.48138594E-01
  0.00000000E+00  0.00000000E+00 -6.82999102E-01  0.00000000E+00  0.00000000E+00
 -6.69867448E-01  0.00000000E+00  0.00000000E+00 -2.82651900E-01  0.00000000E+00
  0.00000000E+00  9.68181566E-01  0.00000000E+00  0.00000000E+00  2.99833970E-01
 -1.73726251E-01  0.00000000E+00  0.00000000E+00  4.11783024E-17  0.00000000E+00
  5.94205817E-01 -1.35785713E-01  3.48317049E-02 -1.12825757E+00  1.29753281E+00
  1.10766334E-01 -8.85711943E-01  2.03934866E-01  6.14781418E-01 -4.87024108E-01
  0.00000000E+00  0.00000000E+00 -1.71245084E-02  0.00000000E+00  0.00000000E+00
  1.15610229E-02  0.00000000E+00  0.00000000E+00  1.02507194E-02  0.00000000E+00
  0.00000000E+00  2.36678094E-03  0.00000000E+00  0.00000000E+00  3.70798489E-03
  0.00000000E+00  0.00000000E+00 -2.93221487E-02  1.72221899E-02  0.00000000E+00
  0.00000000E+00  5.00742350E-17  0.00000000E+00 -1.75162322E-01  1.55341739E-01
 -1.23517894E-01  1.67516593E-01 -2.28526929E-01  9.31499539E-02  9.93803061E-02
 -2.04318897E-01 -1.46552016E-01 -7.68517498E-01  0.00000000E+00  0.00000000E+00
  8.81927831E-01  0.00000000E+00  0.00000000E+00 -5.68360283E-01  0.00000000E+00
  0.00000000E+00 -4.42045274E-01  0.00000000E+00  0.00000000E+00  2.48698916E-01
  0.00000000E+00  0.00000000E+00  6.65141444E-01  0.00000000E+00  0.00000000E+00
 -3.45153457E-01 -1.65995038E-01  0.00000000E+00  0.00000000E+00 -7.61287322E-17
  0.00000000E+00 -8.80937989E-01  1.50753796E+00  4.20155024E-01  4.25761109E-01
 -7.23723740E-01  8.64043539E-01 -3.47678683E-01 -8.09388529E-01  9.98007403E-01
 -8.76202886E-01  0.00000000E+00  0.00000000E+00 -9.49190513E-01  0.00000000E+00
  0.00000000E+00  9.46395591E-01  0.00000000E+00  0.00000000E+00  6.69967902E-01
  0.00000000E+00  0.00000000E+00 -8.47219274E-01  0.00000000E+00  0.00000000E+00
 -9.80542129E-02  0.00000000E+00  0.00000000E+00  1.54742846E+00 -9.49992695E-02
  0.00000000E+00  0.00000000E+00 -2.02317312E-16  0.00000000E+00 -3.48622988E-01
  7.39523939E-01  1.62579913E-01  5.33335834E-01 -9.66003712E-01  1.42560765E+00
 -9.13538812E-01 -8.03591630E-01  1.75766898E+00 -1.41601925E-01  0.00000000E+00
  0.00000000E+00  4.85201664E-01  0.00000000E+00  0.00000000E+00 -6.96951173E-01
  0.00000000E+00  0.00000000E+00 -4.77480001E-01  0.00000000E+00  0.00000000E+00
  7.47747749E-01  0.00000000E+00  0.00000000E+00 -1.89423495E-01  0.00000000E+00
  0.00000000E+00 -1.32579163E+00  1.85091642E-01  0.00000000E+00  0.00000000E+00
  3.86229253E-16  0.00000000E+00  2.56829790E-01 -9.41282474E-01 -5.81233762E-01
 -4.31349350E-02  9.02056651E-02 -2.05439924E-01  2.39624989E-01 -1.62361718E-01
  2.39745014E-02  3.24013454E-01  0.00000000E+00  0.00000000E+00 -1.34534240E+00
  0.00000000E+00  0.00000000E+00 -1.80228991E+00  0.00000000E+00  0.00000000E+00
 -1.13735101E+00  0.00000000E+00  0.00000000E+00  2.75609590E+00  0.00000000E+00
  0.00000000E+00 -2.28383302E+00  0.00000000E+00  0.00000000E+00  1.99148257E+00
 -4.57411125E-02  0.00000000E+00  0.00000000E+00 -4.20448277E-16  0.00000000E+00
 -4.73009497E-01  8.80092150E-01 -7.81042576E-01 -4.60209347E-01  9.89959234E-01
 -2.43700562E+00  3.04109644E+00 -2.71977443E+00  2.32901970E+00 -8.36786349E-01
  0.00000000E+00  0.00000000E+00  1.99282450E-01  0.00000000E+00  0.00000000E+00
 -2.78860097E-03  0.00000000E+00  0.00000000E+00 -1.77738559E-03  0.00000000E+00
  0.00000000E+00  7.97928828E-03  0.00000000E+00  0.00000000E+00 -3.88266380E-02
  0.00000000E+00  0.00000000E+00 -3.51428010E-01  9.21293505E-02  0.00000000E+00
  0.00000000E+00  2.27172588E-16  0.00000000E+00  1.16042706E-01 -5.75484408E-01
  1.90758241E-01  4.55339983E-02 -1.01742724E-01  2.80138543E-01 -3.93683629E-01
  4.16869835E-01 -5.26579018E-01 -2.47406871E+00  0.00000000E+00  0.00000000E+00
  1.09523201E+00  0.00000000E+00  0.00000000E+00 -4.91955323E-01  0.00000000E+00
  0.00000000E+00 -2.98864029E-01  0.00000000E+00  0.00000000E+00  8.88270564E-01
  0.00000000E+00  0.00000000E+00 -1.20555259E+00  0.00000000E+00  0.00000000E+00
  1.19318189E+00  1.60274626E-01  0.00000000E+00  0.00000000E+00 -1.50406970E-15
  0.00000000E+00  6.74873580E-01 -2.46375815E+00  4.85361675E+00  0.00000000E+00
  0.00000000E+00  0.00000000E+00  0.00000000E+00  0.00000000E+00  0.00000000E+00
  0.00000000E+00  0.00000000E+00  0.00000000E+00  0.00000000E+00  0.00000000E+00
  0.00000000E+00  0.00000000E+00  0.00000000E+00  0.00000000E+00  0.00000000E+00
  0.00000000E+00  0.00000000E+00  0.00000000E+00  0.00000000E+00  0.00000000E+00
  0.00000000E+00  0.00000000E+00  0.00000000E+00  0.00000000E+00  0.00000000E+00
  0.00000000E+00  0.00000000E+00  0.00000000E+00  1.00000000E+00  0.00000000E+00
  0.00000000E+00  0.00000000E+00  0.00000000E+00  0.00000000E+00  0.00000000E+00
  0.00000000E+00  0.00000000E+00  0.00000000E+00  0.00000000E+00  2.43148705E-01
  0.00000000E+00  0.00000000E+00  1.82095401E-01  0.00000000E+00  0.00000000E+00
  3.51919560E-03  0.00000000E+00  0.00000000E+00  2.89650088E-01  0.00000000E+00
  0.00000000E+00  3.32355162E-01  0.00000000E+00  0.00000000E+00  3.08201680E-01
  0.00000000E+00  0.00000000E+00  0.00000000E+00  0.00000000E+00  0.00000000E+00
  0.00000000E+00  0.00000000E+00  0.00000000E+00  0.00000000E+00  0.00000000E+00
  0.00000000E+00  0.00000000E+00  0.00000000E+00  0.00000000E+00  0.00000000E+00
  0.00000000E+00  0.00000000E+00 -2.97091349E-01  0.00000000E+00  0.00000000E+00
  5.02411712E-01  0.00000000E+00  0.00000000E+00 -3.91454434E-01  0.00000000E+00
  0.00000000E+00  2.27243229E-01  0.00000000E+00  0.00000000E+00 -6.29232412E-03
  0.00000000E+00  0.00000000E+00 -2.64766939E-01  0.00000000E+00  0.00000000E+00
  0.00000000E+00  0.00000000E+00  0.00000000E+00  0.00000000E+00  0.00000000E+00
  0.00000000E+00  0.00000000E+00  0.00000000E+00  0.00000000E+00  0.00000000E+00
  0.00000000E+00  0.00000000E+00  0.00000000E+00  0.00000000E+00  0.00000000E+00
 -4.11363865E-01  0.00000000E+00  0.00000000E+00 -1.03301621E-01  0.00000000E+00
  0.00000000E+00  5.91216474E-01  0.00000000E+00  0.00000000E+00  4.06662061E-01
  0.00000000E+00  0.00000000E+00  2.42885796E-01  0.00000000E+00  0.00000000E+00
 -2.65285105E-01  0.00000000E+00  0.00000000E+00  0.00000000E+00  0.00000000E+00
  0.00000000E+00  0.00000000E+00  0.00000000E+00  0.00000000E+00  0.00000000E+00
  0.00000000E+00  0.00000000E+00  0.00000000E+00  0.00000000E+00  0.00000000E+00
  0.00000000E+00  0.00000000E+00  0.00000000E+00  0.00000000E+00  0.00000000E+00
  0.00000000E+00  0.00000000E+00  0.00000000E+00  0.00000000E+00  0.00000000E+00
  0.00000000E+00  0.00000000E+00  0.00000000E+00  0.00000000E+00  0.00000000E+00
  0.00000000E+00  0.00000000E+00  0.00000000E+00  0.00000000E+00  0.00000000E+00
  0.00000000E+00  0.00000000E+00  1.00000000E+00  0.00000000E+00  0.00000000E+00
  0.00000000E+00  0.00000000E+00  0.00000000E+00  0.00000000E+00  0.00000000E+00
  0.00000000E+00  0.00000000E+00  0.00000000E+00  0.00000000E+00  0.00000000E+00
  0.00000000E+00 -7.47125948E-01  0.00000000E+00  0.00000000E+00 -6.57713383E-01
  0.00000000E+00  0.00000000E+00 -6.74874885E-01  0.00000000E+00  0.00000000E+00
 -3.48782188E-01  0.00000000E+00  0.00000000E+00  9.71730283E-01  0.00000000E+00
  0.00000000E+00  2.65636195E-01  0.00000000E+00  0.00000000E+00  0.00000000E+00
  0.00000000E+00  0.00000000E+00  0.00000000E+00  0.00000000E+00  0.00000000E+00
  0.00000000E+00  0.00000000E+00  0.00000000E+00  0.00000000E+00  0.00000000E+00
  0.00000000E+00  0.00000000E+00  0.00000000E+00  0.00000000E+00 -1.42428549E+00
  0.00000000E+00  0.00000000E+00  1.23303904E+00  0.00000000E+00  0.00000000E+00
  8.92365203E-01  0.00000000E+00  0.00000000E+00 -9.61194347E-01  0.00000000E+00
  0.00000000E+00 -4.79167937E-01  0.00000000E+00  0.00000000E+00  1.80500636E+00
  0.00000000E+00  0.00000000E+00  0.00000000E+00  0.00000000E+00  0.00000000E+00
  0.00000000E+00  0.00000000E+00  0.00000000E+00  0.00000000E+00  0.00000000E+00
  0.00000000E+00  0.00000000E+00  0.00000000E+00  0.00000000E+00  0.00000000E+00
  0.00000000E+00  0.00000000E+00 -1.09144857E+00  0.00000000E+00  0.00000000E+00
 -1.91114755E+00  0.00000000E+00  0.00000000E+00 -1.20933577E+00  0.00000000E+00
  0.00000000E+00  2.89901531E+00  0.00000000E+00  0.00000000E+00 -2.46043865E+00
  0.00000000E+00  0.00000000E+00  1.93279549E+00  0.00000000E+00  0.00000000E+00
  0.00000000E+00  0.00000000E+00  0.00000000E+00  0.00000000E+00  0.00000000E+00
  0.00000000E+00  0.00000000E+00  0.00000000E+00  0.00000000E+00  0.00000000E+00
  0.00000000E+00  0.00000000E+00  0.00000000E+00  0.00000000E+00  0.00000000E+00
  0.00000000E+00  2.43148705E-01  0.00000000E+00  0.00000000E+00  1.82095401E-01
  0.00000000E+00  0.00000000E+00  3.51919560E-03  0.00000000E+00  0.00000000E+00
  2.89650088E-01  0.00000000E+00  0.00000000E+00  3.32355162E-01  0.00000000E+00
  0.00000000E+00  3.08201680E-01  0.00000000E+00  0.00000000E+00  0.00000000E+00
  0.00000000E+00  0.00000000E+00  0.00000000E+00  0.00000000E+00  0.00000000E+00
  0.00000000E+00  0.00000000E+00  0.00000000E+00  0.00000000E+00  0.00000000E+00
  0.00000000E+00  0.00000000E+00  0.00000000E+00  0.00000000E+00 -2.97091349E-01
  0.00000000E+00  0.00000000E+00  5.02411712E-01  0.00000000E+00  0.00000000E+00
 -3.91454434E-01  0.00000000E+00  0.00000000E+00  2.27243229E-01  0.00000000E+00
  0.00000000E+00 -6.29232412E-03  0.00000000E+00  0.00000000E+00 -2.64766939E-01
  0.00000000E+00  0.00000000E+00  0.00000000E+00  0.00000000E+00  0.00000000E+00
  0.00000000E+00  0.00000000E+00  0.00000000E+00  0.00000000E+00  0.00000000E+00
  0.00000000E+00  0.00000000E+00  0.00000000E+00  0.00000000E+00  0.00000000E+00
  0.00000000E+00  0.00000000E+00 -4.11363865E-01  0.00000000E+00  0.00000000E+00
 -1.03301621E-01  0.00000000E+00  0.00000000E+00  5.91216474E-01  0.00000000E+00
  0.00000000E+00  4.06662061E-01  0.00000000E+00  0.00000000E+00  2.42885796E-01
  0.00000000E+00  0.00000000E+00 -2.65285105E-01  0.00000000E+00  0.00000000E+00
  0.00000000E+00  0.00000000E+00  0.00000000E+00  0.00000000E+00  0.00000000E+00
  0.00000000E+00  0.00000000E+00  0.00000000E+00  0.00000000E+00  0.00000000E+00
  0.00000000E+00  0.00000000E+00  0.00000000E+00  0.00000000E+00  0.00000000E+00
  0.00000000E+00  0.00000000E+00  0.00000000E+00  0.00000000E+00  0.00000000E+00
  0.00000000E+00  0.00000000E+00  0.00000000E+00  0.00000000E+00  0.00000000E+00
  0.00000000E+00  0.00000000E+00  0.00000000E+00  0.00000000E+00  0.00000000E+00
  0.00000000E+00  0.00000000E+00  0.00000000E+00  0.00000000E+00  1.00000000E+00
  0.00000000E+00  0.00000000E+00  0.00000000E+00  0.00000000E+00  0.00000000E+00
  0.00000000E+00  0.00000000E+00  0.00000000E+00  0.00000000E+00  0.00000000E+00
  0.00000000E+00  0.00000000E+00  0.00000000E+00 -7.47125948E-01  0.00000000E+00
  0.00000000E+00 -6.57713383E-01  0.00000000E+00  0.00000000E+00 -6.74874885E-01
  0.00000000E+00  0.00000000E+00 -3.48782188E-01  0.00000000E+00  0.00000000E+00
  9.71730283E-01  0.00000000E+00  0.00000000E+00  2.65636195E-01  0.00000000E+00
  0.00000000E+00  0.00000000E+00  0.00000000E+00  0.00000000E+00  0.00000000E+00
  0.00000000E+00  0.00000000E+00  0.00000000E+00  0.00000000E+00  0.00000000E+00
  0.00000000E+00  0.00000000E+00  0.00000000E+00  0.00000000E+00  0.00000000E+00
  0.00000000E+00 -1.42428549E+00  0.00000000E+00  0.00000000E+00  1.23303904E+00
  0.00000000E+00  0.00000000E+00  8.92365203E-01  0.00000000E+00  0.00000000E+00
 -9.61194347E-01  0.00000000E+00  0.00000000E+00 -4.79167937E-01  0.00000000E+00
  0.00000000E+00  1.80500636E+00  0.00000000E+00  0.00000000E+00  0.00000000E+00
  0.00000000E+00  0.00000000E+00  0.00000000E+00  0.00000000E+00  0.00000000E+00
  0.00000000E+00  0.00000000E+00  0.00000000E+00  0.00000000E+00  0.00000000E+00
  0.00000000E+00  0.00000000E+00  0.00000000E+00  0.00000000E+00 -1.09144857E+00
  0.00000000E+00  0.00000000E+00 -1.91114755E+00  0.00000000E+00  0.00000000E+00
 -1.20933577E+00  0.00000000E+00  0.00000000E+00  2.89901531E+00  0.00000000E+00
  0.00000000E+00 -2.46043865E+00  0.00000000E+00  0.00000000E+00  1.93279549E+00
  0.00000000E+00  0.00000000E+00  0.00000000E+00  0.00000000E+00  0.00000000E+00
  0.00000000E+00  0.00000000E+00  0.00000000E+00  0.00000000E+00
Total SCF Density                          R   N=         561
  3.71423671E-01  6.27569045E-01  1.09902743E+00 -1.29970750E-01 -3.67195224E-01
  6.10638588E-01 -1.78729522E-01 -4.90339459E-01  7.93203348E-01  1.08095888E+00
  3.54223168E-02  1.04123002E-01 -2.17698195E-01 -4.71887616E-01  7.93280238E-01
  4.49919636E-02  1.29953380E-01 -2.54879034E-01 -4.99303224E-01  7.33712253E-01
  7.01139936E-01  2.60904156E-04  8.47668403E-04 -2.40238519E-03 -5.55589955E-03
  1.24016173E-02  1.77383304E-02  2.53612710E-03  0.00000000E+00  0.00000000E+00
  0.00000000E+00  0.00000000E+00  0.00000000E+00  0.00000000E+00  0.00000000E+00
  2.41208039E-03  0.00000000E+00  0.00000000E+00  0.00000000E+00  0.00000000E+00
  0.00000000E+00  0.00000000E+00  0.00000000E+00  0.00000000E+00  2.41208039E-03
 -9.19546021E-04 -2.64788199E-03  5.19079869E-03  9.80125024E-03 -1.42234836E-02
 -1.54988760E-02 -1.03459205E-03  0.00000000E+00  0.00000000E+00  5.42525506E-04
  0.00000000E+00  0.00000000E+00  0.00000000E+00  0.00000000E+00  0.00000000E+00
  0.00000000E+00  0.00000000E+00  1.44004184E-02  0.00000000E+00  0.00000000E+00
  1.38625149E+00  0.00000000E+00  0.00000000E+00  0.00000000E+00  0.00000000E+00
  0.00000000E+00  0.00000000E+00  0.00000000E+00  0.00000000E+00  1.44004184E-02
  0.00000000E+00  0.00000000E+00  1.38625149E+00 -2.14865435E-03 -6.28042076E-03
  1.41387372E-02  2.02865916E-02 -3.50139633E-02 -6.45587840E-02 -1.34301232E-02
  0.00000000E+00  0.00000000E+00  4.00343552E-03  0.00000000E+00  0.00000000E+00
  1.35397786E+00  0.00000000E+00  0.00000000E+00  0.00000000E+00  0.00000000E+00
  0.00000000E+00  0.00000000E+00  0.00000000E+00 -5.60589551E-03  0.00000000E+00
  0.00000000E+00 -4.83385737E-01  0.00000000E+00  0.00000000E+00  1.68707539E-01
  0.00000000E+00  0.00000000E+00  0.00000000E+00  0.00000000E+00  0.00000000E+00
  0.00000000E+00  0.00000000E+00  0.00000000E+00 -5.60589551E-03  0.00000000E+00
  0.00000000E+00 -4.83385737E-01  0.00000000E+00  0.00000000E+00  1.68707539E-01
  7.71832744E-04  2.32971985E-03 -5.42077998E-03 -7.97621917E-03  1.37403368E-02
  2.49748156E-02  5.08565036E-03  0.00000000E+00  0.00000000E+00 -1.55891260E-03
  0.00000000E+00  0.00000000E+00 -4.70311689E-01  0.00000000E+00  0.00000000E+00
  1.63439512E-01  0.00000000E+00  0.00000000E+00  0.00000000E+00  0.00000000E+00
  0.00000000E+00  0.00000000E+00  0.00000000E+00 -1.69227437E-02  0.00000000E+00
  0.00000000E+00 -2.73164338E-02  0.00000000E+00  0.00000000E+00  1.38236041E-02
  0.00000000E+00  0.00000000E+00  1.22906040E-01  0.00000000E+00  0.00000000E+00
  0.00000000E+00  0.00000000E+00  0.00000000E+00  0.00000000E+00  0.00000000E+00
  0.00000000E+00 -1.69227437E-02  0.00000000E+00  0.00000000E+00 -2.73164338E-02
  0.00000000E+00  0.00000000E+00  1.38236041E-02  0.00000000E+00  0.00000000E+00
  1.22906040E-01  2.78862905E-03  8.06906914E-03 -1.66654049E-02 -2.85660845E-02
  4.42545013E-02  7.66590108E-02  1.35763829E-02  0.00000000E+00  0.00000000E+00
 -5.36674665E-03  0.00000000E+00  0.00000000E+00  1.31922201E-02  0.00000000E+00
  0.00000000E+00 -2.16032557E-03  0.00000000E+00  0.00000000E+00  7.93266129E-02
  0.00000000E+00  0.00000000E+00  0.00000000E+00  0.00000000E+00  0.00000000E+00
  0.00000000E+00  0.00000000E+00 -4.11573423E-02  0.00000000E+00  0.00000000E+00
 -2.63696575E-01  0.00000000E+00  0.00000000E+00  1.01875546E-01  0.00000000E+00
  0.00000000E+00  2.87733448E-01  0.00000000E+00  0.00000000E+00  7.02516665E-01
  0.00000000E+00  0.00000000E+00  0.00000000E+00  0.00000000E+00  0.00000000E+00
  0.00000000E+00  0.00000000E+00  0.00000000E+00 -4.11573423E-02  0.00000000E+00
  0.00000000E+00 -2.63696575E-01  0.00000000E+00  0.00000000E+00  1.01875546E-01
  0.00000000E+00  0.00000000E+00  2.87733448E-01  0.00000000E+00  0.00000000E+00
  7.02516665E-01  4.40282224E-03  1.31812911E-02 -2.94022275E-02 -4.84303797E-02
  8.05502523E-02  1.60960661E-01  3.27731825E-02  0.00000000E+00  0.00000000E+00
 -1.24360791E-02  0.00000000E+00  0.00000000E+00 -1.75067389E-01  0.00000000E+00
  0.00000000E+00  6.63113323E-02  0.00000000E+00  0.00000000E+00  1.78375601E-01
  0.00000000E+00  0.00000000E+00  4.32972023E-01  0.00000000E+00  0.00000000E+00
  0.00000000E+00  0.00000000E+00  0.00000000E+00  0.00000000E+00  0.00000000E+00
 -2.56437891E-02  0.00000000E+00  0.00000000E+00 -1.59879512E-01  0.00000000E+00
  0.00000000E+00  6.19455123E-02  0.00000000E+00  0.00000000E+00  1.79527909E-01
  0.00000000E+00  0.00000000E+00  4.37653933E-01  0.00000000E+00  0.00000000E+00
  2.72664737E-01  0.00000000E+00  0.00000000E+00  0.00000000E+00  0.00000000E+00
  0.00000000E+00  0.00000000E+00  0.00000000E+00  0.00000000E+00 -2.56437891E-02
  0.00000000E+00  0.00000000E+00 -1.59879512E-01  0.00000000E+00  0.00000000E+00
  6.19455123E-02  0.00000000E+00  0.00000000E+00  1.79527909E-01  0.00000000E+00
  0.00000000E+00  4.37653933E-01  0.00000000E+00  0.00000000E+00  2.72664737E-01
  2.55911098E-03  7.49902038E-03 -1.58501343E-02 -2.88830790E-02  4.68018973E-02
  7.04340819E-02  1.05952104E-02  0.00000000E+00  0.00000000E+00 -4.28563930E-03
  0.00000000E+00  0.00000000E+00 -5.11861655E-02  0.00000000E+00  0.00000000E+00
  1.95527661E-02  0.00000000E+00  0.00000000E+00  5.73551475E-02  0.00000000E+00
  0.00000000E+00  1.37743375E-01  0.00000000E+00  0.00000000E+00  4.44143817E-02
  5.74890527E-04  1.60932144E-03 -2.73546436E-03 -7.49142978E-03  1.06775177E-02
 -4.42127151E-03 -5.08058583E-03  0.00000000E+00  0.00000000E+00  1.63735491E-03
  0.00000000E+00  0.00000000E+00  2.63092358E-02  0.00000000E+00  0.00000000E+00
 -1.00093209E-02  0.00000000E+00  0.00000000E+00 -2.84579378E-02  0.00000000E+00
  0.00000000E+00 -6.96143308E-02  0.00000000E+00  0.00000000E+00 -2.15087776E-02
  1.19144239E-02  0.00000000E+00  0.00000000E+00  0.00000000E+00  0.00000000E+00
  0.00000000E+00  0.00000000E+00  0.00000000E+00  1.09838148E-03  0.00000000E+00
  0.00000000E+00  6.37047088E-03  0.00000000E+00  0.00000000E+00 -2.48803314E-03
  0.00000000E+00  0.00000000E+00 -7.71665810E-03  0.00000000E+00  0.00000000E+00
 -1.87391037E-02  0.00000000E+00  0.00000000E+00 -1.16763563E-02  0.00000000E+00
  0.00000000E+00  0.00000000E+00  5.00193422E-04  0.00000000E+00  0.00000000E+00
  0.00000000E+00  0.00000000E+00  0.00000000E+00  0.00000000E+00  0.00000000E+00
  0.00000000E+00  1.09838148E-03  0.00000000E+00  0.00000000E+00  6.37047088E-03
  0.00000000E+00  0.00000000E+00 -2.48803314E-03  0.00000000E+00  0.00000000E+00
 -7.71665810E-03  0.00000000E+00  0.00000000E+00 -1.87391037E-02  0.00000000E+00
  0.00000000E+00 -1.16763563E-02  0.00000000E+00  0.00000000E+00  0.00000000E+00
  5.00193422E-04  8.31894876E-17  1.90814636E-16 -2.25100288E-16 -3.24469774E-16
  1.78637486E-16  1.31649256E-16 -1.61320775E-17  0.00000000E+00  0.00000000E+00
  2.80926890E-18  0.00000000E+00  0.00000000E+00  1.80584480E-16  0.00000000E+00
  0.00000000E+00 -6.53771032E-17  0.00000000E+00  0.00000000E+00 -8.62745815E-17
  0.00000000E+00  0.00000000E+00 -2.35282153E-16  0.00000000E+00  0.00000000E+00
 -6.61350860E-17  4.44610953E-17  0.00000000E+00  0.00000000E+00 -4.83685988E-20
  0.00000000E+00  0.00000000E+00  0.00000000E+00  0.00000000E+00  0.00000000E+00
  0.00000000E+00  0.00000000E+00  0.00000000E+00  0.00000000E+00  0.00000000E+00
  0.00000000E+00  0.00000000E+00  0.00000000E+00  0.00000000E+00  0.00000000E+00
  0.00000000E+00  0.00000000E+00  0.00000000E+00  0.00000000E+00  0.00000000E+00
  0.00000000E+00  0.00000000E+00  0.00000000E+00  0.00000000E+00  0.00000000E+00
  0.00000000E+00  0.00000000E+00  0.00000000E+00  0.00000000E+00  2.73643232E-52
  2.96721513E-03  8.45423923E-03 -1.55342612E-02 -3.52620664E-02  5.04221995E-02
  1.33564153E-02 -1.15086940E-02  0.00000000E+00  0.00000000E+00  3.37378328E-03
  0.00000000E+00  0.00000000E+00  6.20335200E-02  0.00000000E+00  0.00000000E+00
 -2.35337910E-02  0.00000000E+00  0.00000000E+00 -6.51281068E-02  0.00000000E+00
  0.00000000E+00 -1.60470398E-01  0.00000000E+00  0.00000000E+00 -4.88702700E-02
  2.82499321E-02  0.00000000E+00  0.00000000E+00  1.11398305E-16  0.00000000E+00
  6.77970338E-02  4.67119858E-04  1.12324435E-03 -2.32806720E-04 -7.31517202E-03
  6.44302324E-03 -4.95143772E-02 -2.02339509E-02  0.00000000E+00  0.00000000E+00
  6.97068934E-03  0.00000000E+00  0.00000000E+00  1.06839614E-01  0.00000000E+00
  0.00000000E+00 -4.05492220E-02  0.00000000E+00  0.00000000E+00 -1.12016520E-01
  0.00000000E+00  0.00000000E+00 -2.73334039E-01  0.00000000E+00  0.00000000E+00
 -8.54064291E-02  4.56974165E-02  0.00000000E+00  0.00000000E+00  1.65157617E-16
  0.00000000E+00  1.07247233E-01  1.76800489E-01 -3.08847658E-03 -8.96408211E-03
  1.78574806E-02  3.27662105E-02 -4.75388183E-02 -5.80176475E-02 -5.72765826E-03
  0.00000000E+00  0.00000000E+00  2.60179397E-03  0.00000000E+00  0.00000000E+00
  2.92741336E-02  0.00000000E+00  0.00000000E+00 -1.11094463E-02  0.00000000E+00
  0.00000000E+00 -3.02223466E-02  0.00000000E+00  0.00000000E+00 -7.21534529E-02
  0.00000000E+00  0.00000000E+00 -2.38875916E-02  1.05585468E-02  0.00000000E+00
  0.00000000E+00  2.73092408E-17  0.00000000E+00  2.31930069E-02  4.30178753E-02
  1.35438059E-02
Grdnt Energy                               R     -4.600871703394052E+02
Grdnt NVar                                 I                1
Grdnt IGetFC                               I                4
Internal Forces                            R   N=           1
 -3.45126366E-07
Internal Force Constants                   R   N=           1
  3.57777970E-01
Mulliken Charges                           R   N=           2
 -2.56871861E-01  2.56871861E-01
Optimization MaxStp                        I                2
Optimization MaxJob                        I                1
Optimization Job offset                    I                0
Optimization Num results per geometry      I                2
Optimization Num geometry variables        I                6
Optimization Reference Energy              R     -4.600000000000000E+02
Opt point       1 Results for each geome   R   N=           2
 -8.71703394E-02  0.00000000E+00
Opt point       1 Geometries               R   N=           6
  0.00000000E+00  0.00000000E+00  1.33482544E-01  0.00000000E+00  0.00000000E+00
 -2.26920325E+00
Opt point       1 Gradient at each geome   R   N=           6
  0.00000000E+00  0.00000000E+00  3.45126366E-07  0.00000000E+00  0.00000000E+00
 -3.45126366E-07
Optimization Number of geometries          I   N=           1
           1
ONIOM Charges                              I   N=          16
           0           0           0           0           0           0
           0           0           0           0           0           0
           0           0           0           0
ONIOM Multiplicities                       I   N=          16
           1           0           0           0           0           0
           0           0           0           0           0           0
           0           0           0           0
Atom Layers                                I   N=           2
           1           1
Atom Modifiers                             I   N=           2
           0           0
Int Atom Modified Types                    I   N=           2
           0           0
Force Field                                I                0
Atom Modified Types                        C   N=           2
                        
Link Atoms                                 I   N=           2
           0           0
Atom Modified MM Charges                   R   N=           2
  0.00000000E+00  0.00000000E+00
Link Distances                             R   N=           8
  0.00000000E+00  0.00000000E+00  0.00000000E+00  0.00000000E+00  0.00000000E+00
  0.00000000E+00  0.00000000E+00  0.00000000E+00
Cartesian Gradient                         R   N=           6
  0.00000000E+00  0.00000000E+00  3.45126366E-07  0.00000000E+00  0.00000000E+00
 -3.45126366E-07
Cartesian Force Constants                  R   N=          21
  1.40776121E-07 -2.76520785E-33  1.40775894E-07  0.00000000E+00  0.00000000E+00
  3.57777970E-01 -1.40730894E-07  0.00000000E+00  0.00000000E+00  1.40730891E-07
 -5.91919775E-33 -1.40730894E-07  0.00000000E+00 -4.62131423E-33  1.40730890E-07
  0.00000000E+00  0.00000000E+00 -3.57777970E-01  0.00000000E+00  0.00000000E+00
  3.57777970E-01
Nonadiabatic coupling                      R   N=           6
  0.00000000E+00  0.00000000E+00  0.00000000E+00  0.00000000E+00  0.00000000E+00
  0.00000000E+00
Dipole Moment                              R   N=           3
  0.00000000E+00  0.00000000E+00 -5.99894417E-01
Dipole Derivatives                         R   N=          18
 -2.49676725E-01  0.00000000E+00  0.00000000E+00  0.00000000E+00 -2.49676725E-01
  0.00000000E+00  0.00000000E+00  0.00000000E+00 -1.63925731E-01  2.49676725E-01
  0.00000000E+00  0.00000000E+00  0.00000000E+00  2.49676725E-01  0.00000000E+00
  0.00000000E+00  0.00000000E+00  1.63925731E-01
Polarizability                             R   N=           6
  8.14843162E+00  0.00000000E+00  8.14843162E+00  0.00000000E+00  0.00000000E+00
  1.28190173E+01
Polarizability Derivatives                 R   N=          36
  0.00000000E+00  0.00000000E+00  0.00000000E+00  1.94390262E+00  6.97850388E-34
  0.00000000E+00  0.00000000E+00  0.00000000E+00  0.00000000E+00  6.97850388E-34
  1.94390262E+00  0.00000000E+00 -2.23638902E-01  1.54640179E-33 -2.23638902E-01
  0.00000000E+00  0.00000000E+00  1.14956063E+01  0.00000000E+00  0.00000000E+00
  0.00000000E+00 -1.94390262E+00 -3.28882296E-34  0.00000000E+00  0.00000000E+00
  0.00000000E+00  0.00000000E+00 -3.28882296E-34 -1.94390262E+00  0.00000000E+00
  2.23638902E-01 -1.51204146E-33  2.23638902E-01  0.00000000E+00  0.00000000E+00
 -1.14956063E+01
HyperPolarizability                        R   N=          10
  0.00000000E+00  0.00000000E+00  0.00000000E+00  0.00000000E+00  3.25708537E+00
  0.00000000E+00  3.25708537E+00  0.00000000E+00  0.00000000E+00 -2.90900467E+01
Quadrupole Moment                          R   N=           6
 -9.41056839E-01 -9.41056839E-01  1.88211368E+00  0.00000000E+00  0.00000000E+00
  0.00000000E+00
QEq coupling tensors                       R   N=          12
  1.75264016E+00  0.00000000E+00  1.75264016E+00  0.00000000E+00  0.00000000E+00
 -3.50528032E+00  1.55668132E-01  0.00000000E+00  1.55668132E-01  0.00000000E+00
  0.00000000E+00 -3.11336264E-01
Number of Normal Modes                     I                1
Vib-LE2Fix                                 I               14
Vib-NDFDPol                                I                0
Vib-NumROA                                 I                0
Vib-NDim                                   I                2
Vib-NDim0                                  I                2
Vib-LFlags                                 I                8
Vib-IFlags                                 I   N=           8
           0           0           1           0           0           0
           0           0
Vib-AtMass                                 R   N=           2
  3.49688527E+01  1.00782504E+00
Vib-E2                                     R   N=          14
  3.10662147E+03  1.03601067E+00  5.89102829E+00  2.67423788E+01  1.25814948E+02
  3.55286236E-01  5.24296974E-01  0.00000000E+00  0.00000000E+00  1.00000000E+02
  0.00000000E+00  0.00000000E+00  0.00000000E+00  0.00000000E+00
Vib-Modes                                  R   N=           6
  0.00000000E+00  0.00000000E+00 -2.88086870E-02  0.00000000E+00  0.00000000E+00
  9.99584944E-01
ClPar MaxAn                                I              200
ClPar NIntPar                              I                4
ClPar NRealPar                             I               16
ClPar NBits                                I               30
ClPar LenBitVec                            I                1
ClPar Read BitMap                          I   N=         200
           0           0           0           0           0           0
           0           0           0           0           0           0
           0           0           0           0           0           0
           0           0           0           0           0           0
           0           0           0           0           0           0
           0           0           0           0           0           0
           0           0           0           0           0           0
           0           0           0           0           0           0
           0           0           0           0           0           0
           0           0           0           0           0           0
           0           0           0           0           0           0
           0           0           0           0           0           0
           0           0           0           0           0           0
           0           0           0           0           0           0
           0           0           0           0           0           0
           0           0           0           0           0           0
           0           0           0           0           0           0
           0           0           0           0           0           0
           0           0           0           0           0           0
           0           0           0           0           0           0
           0           0           0           0           0           0
           0           0           0           0           0           0
           0           0           0           0           0           0
           0           0           0           0           0           0
           0           0           0           0           0           0
           0           0           0           0           0           0
           0           0           0           0           0           0
           0           0           0           0           0           0
           0           0           0           0           0           0
           0           0           0           0           0           0
           0           0           0           0           0           0
           0           0           0           0           0           0
           0           0           0           0           0           0
           0           0
ClPar Default BitMap                       I   N=         200
        2016        2016        2016        2016        2016        2016
        2016        2016        2016        2016        2016        2016
        2016        2016        2016        2016        2016        2016
        2016        2016        2016        2016        2016        2016
        2016        2016        2016        2016        2016        2016
        2016        2016        2016        2016        2016        2016
        2016        2016        2016        2016        2016        2016
        2016        2016        2016        2016        2016        2016
        2016        2016        2016        2016        2016        2016
        2016        2016        2016        2016        2016        2016
        2016        2016        2016        2016        2016        2016
        2016        2016        2016        2016        2016        2016
        2016        2016        2016        2016        2016        2016
        2016        2016        2016        2016        2016        2016
        2016        2016         480         480         480         480
         480         480         480         480         480         480
         480         480         480         480         480         480
         480         480         480         480         480         480
         480         480         480         480         480         480
         480         480         480         480         480         480
         480         480         480         480         480         480
         480         480         480         480         480         480
         480         480         480         480         480         480
         480         480         480         480         480         480
         480         480         480         480         480         480
         480         480         480         480         480         480
         480         480         480         480         480         480
         480         480         480         480         480         480
         480         480         480         480         480         480
         480         480         480         480         480         480
         480         480         480         480         480         480
         480         480         480         480         480         480
         480         480         480         480         480         480
         480         480
ClPar Int Params                           I   N=         800
           0           0           0           0           0           0
           0           0           0           0           0           0
           0           0           0           0           0           0
           0           0           0           0           0           0
           0           0           0           0           0           0
           0           0           0           0           0           0
           0           0           0           0           0           0
           0           0           0           0           0           0
           0           0           0           0           0           0
           0           0           0           0           0           0
           0           0           0           0           0           0
           0           0           0           0           0           0
           0           0           0           0           0           0
           0           0           0           0           0           0
           0           0           0           0           0           0
           0           0           0           0           0           0
           0           0           0           0           0           0
           0           0           0           0           0           0
           0           0           0           0           0           0
           0           0           0           0           0           0
           0           0           0           0           0           0
           0           0           0           0           0           0
           0           0           0           0           0           0
           0           0           0           0           0           0
           0           0           0           0           0           0
           0           0           0           0           0           0
           0           0           0           0           0           0
           0           0           0           0           0           0
           0           0           0           0           0           0
           0           0           0           0           0           0
           0           0           0           0           0           0
           0           0           0           0           0           0
           0           0           0           0           0           0
           0           0           0           0           0           0
           0           0           0           0           0           0
           0           0           0           0           0           0
           0           0           0           0           0           0
           0           0           0           0           0           0
           0           0           0           0           0           0
           0           0           0           0           0           0
           0           0           0           0           0           0
           0           0           0           0           0           0
           0           0           0           0           0           0
           0           0           0           0           0           0
           0           0           0           0           0           0
           0           0           0           0           0           0
           0           0           0           0           0           0
           0           0           0           0           0           0
           0           0           0           0           0           0
           0           0           0           0           0           0
           0           0           0           0           0           0
           0           0           0           0           0           0
           0           0           0           0           0           0
           0           0           0           0           0           0
           0           0           0           0           0           0
           0           0           0           0           0           0
           0           0           0           0           0           0
           0           0           0           0           0           0
           0           0           0           0           0           0
           0           0           0           0           0           0
           0           0           0           0           0           0
           0           0           0           0           0           0
           0           0           0           0           0           0
           0           0           0           0           0           0
           0           0           0           0           0           0
           0           0           0           0           0           0
           0           0           0           0           0           0
           0           0           0           0           0           0
           0           0           0           0           0           0
           0           0           0           0           0           0
           0           0           0           0           0           0
           0           0           0           0           0           0
           0           0           0           0           0           0
           0           0           0           0           0           0
           0           0           0           0           0           0
           0           0           0           0           0           0
           0           0           0           0           0           0
           0           0           0           0           0           0
           0           0           0           0           0           0
           0           0           0           0           0           0
           0           0           0           0           0           0
           0           0           0           0           0           0
           0           0           0           0           0           0
           0           0           0           0           0           0
           0           0           0           0           0           0
           0           0           0           0           0           0
           0           0           0           0           0           0
           0           0           0           0           0           0
           0           0           0           0           0           0
           0           0           0           0           0           0
           0           0           0           0           0           0
           0           0           0           0           0           0
           0           0           0           0           0           0
           0           0           0           0           0           0
           0           0           0           0           0           0
           0           0           0           0           0           0
           0           0           0           0           0           0
           0           0           0           0           0           0
           0           0           0           0           0           0
           0           0           0           0           0           0
           0           0           0           0           0           0
           0           0           0           0           0           0
           0           0           0           0           0           0
           0           0           0           0           0           0
           0           0           0           0           0           0
           0           0           0           0           0           0
           0           0           0           0           0           0
           0           0           0           0           0           0
           0           0           0           0           0           0
           0           0           0           0           0           0
           0           0           0           0           0           0
           0           0           0           0           0           0
           0           0           0           0           0           0
           0           0           0           0           0           0
           0           0           0           0           0           0
           0           0           0           0           0           0
           0           0           0           0           0           0
           0           0           0           0           0           0
           0           0           0           0           0           0
           0           0           0           0           0           0
           0           0           0           0           0           0
           0           0           0           0           0           0
           0           0           0           0           0           0
           0           0           0           0           0           0
           0           0           0           0           0           0
           0           0           0           0           0           0
           0           0           0           0           0           0
           0           0           0           0           0           0
           0           0           0           0           0           0
           0           0           0           0           0           0
           0           0           0           0           0           0
           0           0           0           0           0           0
           0           0           0           0           0           0
           0           0
ClPar Real Params                          R   N=        3200
  0.00000000E+00  0.00000000E+00  0.00000000E+00  0.00000000E+00  0.00000000E+00
  0.00000000E+00  0.00000000E+00  0.00000000E+00  0.00000000E+00  0.00000000E+00
  0.00000000E+00  0.00000000E+00  0.00000000E+00  0.00000000E+00  0.00000000E+00
  0.00000000E+00  0.00000000E+00  0.00000000E+00  0.00000000E+00  0.00000000E+00
  0.00000000E+00  0.00000000E+00  0.00000000E+00  0.00000000E+00  0.00000000E+00
  0.00000000E+00  0.00000000E+00  0.00000000E+00  0.00000000E+00  0.00000000E+00
  0.00000000E+00  0.00000000E+00  0.00000000E+00  0.00000000E+00  0.00000000E+00
  0.00000000E+00  0.00000000E+00  0.00000000E+00  0.00000000E+00  0.00000000E+00
  0.00000000E+00  0.00000000E+00  0.00000000E+00  0.00000000E+00  0.00000000E+00
  0.00000000E+00  0.00000000E+00  0.00000000E+00  0.00000000E+00  0.00000000E+00
  0.00000000E+00  0.00000000E+00  0.00000000E+00  0.00000000E+00  0.00000000E+00
  0.00000000E+00  0.00000000E+00  0.00000000E+00  0.00000000E+00  0.00000000E+00
  0.00000000E+00  0.00000000E+00  0.00000000E+00  0.00000000E+00  0.00000000E+00
  0.00000000E+00  0.00000000E+00  0.00000000E+00  0.00000000E+00  0.00000000E+00
  0.00000000E+00  0.00000000E+00  0.00000000E+00  0.00000000E+00  0.00000000E+00
  0.00000000E+00  0.00000000E+00  0.00000000E+00  0.00000000E+00  0.00000000E+00
  0.00000000E+00  0.00000000E+00  0.00000000E+00  0.00000000E+00  0.00000000E+00
  0.00000000E+00  0.00000000E+00  0.00000000E+00  0.00000000E+00  0.00000000E+00
  0.00000000E+00  0.00000000E+00  0.00000000E+00  0.00000000E+00  0.00000000E+00
  0.00000000E+00  0.00000000E+00  0.00000000E+00  0.00000000E+00  0.00000000E+00
  0.00000000E+00  0.00000000E+00  0.00000000E+00  0.00000000E+00  0.00000000E+00
  0.00000000E+00  0.00000000E+00  0.00000000E+00  0.00000000E+00  0.00000000E+00
  0.00000000E+00  0.00000000E+00  0.00000000E+00  0.00000000E+00  0.00000000E+00
  0.00000000E+00  0.00000000E+00  0.00000000E+00  0.00000000E+00  0.00000000E+00
  0.00000000E+00  0.00000000E+00  0.00000000E+00  0.00000000E+00  0.00000000E+00
  0.00000000E+00  0.00000000E+00  0.00000000E+00  0.00000000E+00  0.00000000E+00
  0.00000000E+00  0.00000000E+00  0.00000000E+00  0.00000000E+00  0.00000000E+00
  0.00000000E+00  0.00000000E+00  0.00000000E+00  0.00000000E+00  0.00000000E+00
  0.00000000E+00  0.00000000E+00  0.00000000E+00  0.00000000E+00  0.00000000E+00
  0.00000000E+00  0.00000000E+00  0.00000000E+00  0.00000000E+00  0.00000000E+00
  0.00000000E+00  0.00000000E+00  0.00000000E+00  0.00000000E+00  0.00000000E+00
  0.00000000E+00  0.00000000E+00  0.00000000E+00  0.00000000E+00  0.00000000E+00
  0.00000000E+00  0.00000000E+00  0.00000000E+00  0.00000000E+00  0.00000000E+00
  0.00000000E+00  0.00000000E+00  0.00000000E+00  0.00000000E+00  0.00000000E+00
  0.00000000E+00  0.00000000E+00  0.00000000E+00  0.00000000E+00  0.00000000E+00
  0.00000000E+00  0.00000000E+00  0.00000000E+00  0.00000000E+00  0.00000000E+00
  0.00000000E+00  0.00000000E+00  0.00000000E+00  0.00000000E+00  0.00000000E+00
  0.00000000E+00  0.00000000E+00  0.00000000E+00  0.00000000E+00  0.00000000E+00
  0.00000000E+00  0.00000000E+00  0.00000000E+00  0.00000000E+00  0.00000000E+00
  0.00000000E+00  0.00000000E+00  0.00000000E+00  0.00000000E+00  0.00000000E+00
  2.26000000E-01  4.43000000E-01  1.01000000E-01  1.47000000E-01  1.92000000E-01
  2.40000000E-01  2.75000000E-01  3.03000000E-01  3.25000000E-01  4.13000000E-01
  9.60000000E-02  1.35000000E-01  1.73000000E-01  2.11000000E-01  2.48000000E-01
  2.86000000E-01  3.23000000E-01  3.60000000E-01  8.20000000E-02  1.04000000E-01
  1.17000000E-01  1.23000000E-01  1.29000000E-01  1.34000000E-01  1.40000000E-01
  1.44000000E-01  1.48000000E-01  1.52000000E-01  1.55000000E-01  1.76000000E-01
  1.98000000E-01  2.19000000E-01  2.39000000E-01  2.60000000E-01  2.80000000E-01
  3.00000000E-01  7.90000000E-02  9.90000000E-02  1.19000000E-01  1.26000000E-01
  1.33000000E-01  1.40000000E-01  1.47000000E-01  1.53000000E-01  1.58000000E-01
  1.63000000E-01  1.57000000E-01  1.70000000E-01  1.87000000E-01  2.03000000E-01
  2.19000000E-01  2.34000000E-01  2.50000000E-01  2.65000000E-01  7.40000000E-02
  9.20000000E-02  1.05000000E-01  1.06000000E-01  1.07000000E-01  1.08000000E-01
  1.09000000E-01  1.10000000E-01  1.11000000E-01  1.12000000E-01  1.13000000E-01
  1.14000000E-01  1.15000000E-01  1.16000000E-01  1.17000000E-01  1.17000000E-01
  1.26000000E-01  1.36000000E-01  1.46000000E-01  1.55000000E-01  1.65000000E-01
  1.73000000E-01  1.82000000E-01  1.90000000E-01  1.62000000E-01  1.78000000E-01
  1.10000000E-01  1.35000000E-01  1.59000000E-01  1.83000000E-01  2.07000000E-01
  2.31000000E-01  6.90000000E-02  9.40000000E-02  1.02000000E-01  1.03000000E-01
  1.05000000E-01  1.07000000E-01  1.09000000E-01  1.11000000E-01  1.13000000E-01
  1.15000000E-01  1.17000000E-01  1.19000000E-01  1.20000000E-01  1.22000000E-01
  1.24000000E-01  1.26000000E-01  1.28000000E-01  1.28000000E-01  1.28000000E-01
  1.28000000E-01  1.28000000E-01  1.28000000E-01  1.28000000E-01  1.28000000E-01
  1.28000000E-01  1.28000000E-01  1.28000000E-01  1.28000000E-01  1.28000000E-01
  1.28000000E-01  1.28000000E-01  1.28000000E-01  1.28000000E-01  1.28000000E-01
  1.28000000E-01  1.28000000E-01  1.28000000E-01  1.28000000E-01  1.28000000E-01
  1.28000000E-01  1.28000000E-01  1.28000000E-01  1.28000000E-01  1.28000000E-01
  1.28000000E-01  1.28000000E-01  1.28000000E-01  1.28000000E-01  1.28000000E-01
  1.28000000E-01  1.28000000E-01  1.28000000E-01  1.28000000E-01  1.28000000E-01
  1.28000000E-01  1.28000000E-01  1.28000000E-01  1.28000000E-01  1.28000000E-01
  1.28000000E-01  1.28000000E-01  1.28000000E-01  1.28000000E-01  1.28000000E-01
  1.28000000E-01  1.28000000E-01  1.28000000E-01  1.28000000E-01  1.28000000E-01
  1.28000000E-01  1.28000000E-01  1.28000000E-01  1.28000000E-01  1.28000000E-01
  1.28000000E-01  1.28000000E-01  1.28000000E-01  1.28000000E-01  1.28000000E-01
  1.28000000E-01  1.28000000E-01  1.28000000E-01  1.28000000E-01  1.28000000E-01
  1.28000000E-01  1.28000000E-01  1.28000000E-01  1.28000000E-01  1.28000000E-01
  1.28000000E-01  1.28000000E-01  1.28000000E-01  1.28000000E-01  1.28000000E-01
  1.28000000E-01  1.28000000E-01  1.28000000E-01  1.28000000E-01  1.28000000E-01
  1.28000000E-01  1.28000000E-01  1.28000000E-01  1.28000000E-01  1.28000000E-01
  1.28000000E-01  1.28000000E-01  1.28000000E-01  1.28000000E-01  1.28000000E-01
  1.28000000E-01  1.28000000E-01  1.28000000E-01  1.28000000E-01  1.28000000E-01
  5.47000000E-01  5.92000000E-01  5.99000000E-01  6.68000000E-01  6.98000000E-01
  7.18000000E-01  7.26000000E-01  7.36000000E-01  7.43000000E-01  7.45000000E-01
  6.07000000E-01  6.66000000E-01  6.93000000E-01  7.09000000E-01  7.20000000E-01
  7.29000000E-01  7.35000000E-01  7.40000000E-01  6.08000000E-01  7.34000000E-01
  7.46000000E-01  7.55000000E-01  7.61000000E-01  7.65000000E-01  7.67000000E-01
  7.60000000E-01  7.49000000E-01  7.33000000E-01  7.08000000E-01  6.48000000E-01
  6.88000000E-01  7.09000000E-01  7.22000000E-01  7.31000000E-01  7.38000000E-01
  7.44000000E-01  6.09000000E-01  7.30000000E-01  7.41000000E-01  7.52000000E-01
  7.58000000E-01  7.63000000E-01  7.66000000E-01  7.58000000E-01  7.48000000E-01
  7.33000000E-01  7.01000000E-01  6.45000000E-01  6.86000000E-01  7.08000000E-01
  7.22000000E-01  7.31000000E-01  7.38000000E-01  7.44000000E-01  6.08000000E-01
  7.28000000E-01  7.32000000E-01  7.32000000E-01  7.32000000E-01  7.32000000E-01
  7.32000000E-01  7.32000000E-01  7.32000000E-01  7.32000000E-01  7.32000000E-01
  7.31000000E-01  7.31000000E-01  7.31000000E-01  7.31000000E-01  7.46000000E-01
  7.37000000E-01  7.46000000E-01  7.51000000E-01  7.55000000E-01  7.58000000E-01
  7.47000000E-01  7.32000000E-01  7.11000000E-01  7.41000000E-01  7.07000000E-01
  7.47000000E-01  7.43000000E-01  7.42000000E-01  7.42000000E-01  7.43000000E-01
  7.44000000E-01  6.05000000E-01  7.24000000E-01  7.26000000E-01  7.26000000E-01
  7.27000000E-01  7.27000000E-01  7.27000000E-01  7.28000000E-01  7.28000000E-01
  7.28000000E-01  7.28000000E-01  7.28000000E-01  7.29000000E-01  7.29000000E-01
  7.29000000E-01  7.29000000E-01  7.29000000E-01  7.29000000E-01  7.29000000E-01
  7.29000000E-01  7.29000000E-01  7.29000000E-01  7.29000000E-01  7.29000000E-01
  7.29000000E-01  7.29000000E-01  7.29000000E-01  7.29000000E-01  7.29000000E-01
  7.29000000E-01  7.29000000E-01  7.29000000E-01  7.29000000E-01  7.29000000E-01
  7.29000000E-01  7.29000000E-01  7.29000000E-01  7.29000000E-01  7.29000000E-01
  7.29000000E-01  7.29000000E-01  7.29000000E-01  7.29000000E-01  7.29000000E-01
  7.29000000E-01  7.29000000E-01  7.29000000E-01  7.29000000E-01  7.29000000E-01
  7.29000000E-01  7.29000000E-01  7.29000000E-01  7.29000000E-01  7.29000000E-01
  7.29000000E-01  7.29000000E-01  7.29000000E-01  7.29000000E-01  7.29000000E-01
  7.29000000E-01  7.29000000E-01  7.29000000E-01  7.29000000E-01  7.29000000E-01
  7.29000000E-01  7.29000000E-01  7.29000000E-01  7.29000000E-01  7.29000000E-01
  7.29000000E-01  7.29000000E-01  7.29000000E-01  7.29000000E-01  7.29000000E-01
  7.29000000E-01  7.29000000E-01  7.29000000E-01  7.29000000E-01  7.29000000E-01
  7.29000000E-01  7.29000000E-01  7.29000000E-01  7.29000000E-01  7.29000000E-01
  7.29000000E-01  7.29000000E-01  7.29000000E-01  7.29000000E-01  7.29000000E-01
  7.29000000E-01  7.29000000E-01  7.29000000E-01  7.29000000E-01  7.29000000E-01
  7.29000000E-01  7.29000000E-01  7.29000000E-01  7.29000000E-01  7.29000000E-01
  7.29000000E-01  7.29000000E-01  7.29000000E-01  7.29000000E-01  7.29000000E-01
  7.29000000E-01  7.29000000E-01  7.29000000E-01  7.29000000E-01  7.29000000E-01
  7.29000000E-01  7.29000000E-01  7.29000000E-01  7.29000000E-01  7.29000000E-01
  1.00000000E+00  1.70400000E+00  3.23000000E-01  3.89000000E-01  4.67000000E-01
  5.67000000E-01  6.36000000E-01  6.64000000E-01  6.96000000E-01  8.79000000E-01
  3.07000000E-01  3.48000000E-01  4.00000000E-01  4.54000000E-01  5.09000000E-01
  5.65000000E-01  6.21000000E-01  6.77000000E-01  2.56000000E-01  3.50000000E-01
  3.64000000E-01  3.62000000E-01  3.62000000E-01  3.62000000E-01  3.62000000E-01
  3.65000000E-01  3.69000000E-01  3.75000000E-01  3.86000000E-01  4.46000000E-01
  4.55000000E-01  4.74000000E-01  4.96000000E-01  5.20000000E-01  5.45000000E-01
  5.70000000E-01  2.45000000E-01  3.22000000E-01  3.55000000E-01  3.59000000E-01
  3.64000000E-01  3.70000000E-01  3.76000000E-01  3.85000000E-01  3.95000000E-01
  4.08000000E-01  3.76000000E-01  4.23000000E-01  4.22000000E-01  4.32000000E-01
  4.45000000E-01  4.59000000E-01  4.75000000E-01  4.91000000E-01  2.28000000E-01
  2.92000000E-01  2.89000000E-01  2.92000000E-01  2.95000000E-01  2.98000000E-01
  3.00000000E-01  3.03000000E-01  3.06000000E-01  3.09000000E-01  3.12000000E-01
  3.15000000E-01  3.18000000E-01  3.21000000E-01  3.24000000E-01  3.61000000E-01
  3.69000000E-01  3.70000000E-01  3.72000000E-01  3.75000000E-01  3.78000000E-01
  3.85000000E-01  3.94000000E-01  4.07000000E-01  5.26000000E-01  6.21000000E-01
  3.36000000E-01  3.54000000E-01  3.71000000E-01  3.86000000E-01  4.02000000E-01
  4.17000000E-01  2.09000000E-01  2.94000000E-01  2.65000000E-01  2.72000000E-01
  2.78000000E-01  2.84000000E-01  2.91000000E-01  2.97000000E-01  3.03000000E-01
  3.10000000E-01  3.16000000E-01  3.22000000E-01  3.29000000E-01  3.35000000E-01
  3.41000000E-01  3.48000000E-01  3.54000000E-01  3.54000000E-01  3.54000000E-01
  3.54000000E-01  3.54000000E-01  3.54000000E-01  3.54000000E-01  3.54000000E-01
  3.54000000E-01  3.54000000E-01  3.54000000E-01  3.54000000E-01  3.54000000E-01
  3.54000000E-01  3.54000000E-01  3.54000000E-01  3.54000000E-01  3.54000000E-01
  3.54000000E-01  3.54000000E-01  3.54000000E-01  3.54000000E-01  3.54000000E-01
  3.54000000E-01  3.54000000E-01  3.54000000E-01  3.54000000E-01  3.54000000E-01
  3.54000000E-01  3.54000000E-01  3.54000000E-01  3.54000000E-01  3.54000000E-01
  3.54000000E-01  3.54000000E-01  3.54000000E-01  3.54000000E-01  3.54000000E-01
  3.54000000E-01  3.54000000E-01  3.54000000E-01  3.54000000E-01  3.54000000E-01
  3.54000000E-01  3.54000000E-01  3.54000000E-01  3.54000000E-01  3.54000000E-01
  3.54000000E-01  3.54000000E-01  3.54000000E-01  3.54000000E-01  3.54000000E-01
  3.54000000E-01  3.54000000E-01  3.54000000E-01  3.54000000E-01  3.54000000E-01
  3.54000000E-01  3.54000000E-01  3.54000000E-01  3.54000000E-01  3.54000000E-01
  3.54000000E-01  3.54000000E-01  3.54000000E-01  3.54000000E-01  3.54000000E-01
  3.54000000E-01  3.54000000E-01  3.54000000E-01  3.54000000E-01  3.54000000E-01
  3.54000000E-01  3.54000000E-01  3.54000000E-01  3.54000000E-01  3.54000000E-01
  3.54000000E-01  3.54000000E-01  3.54000000E-01  3.54000000E-01  3.54000000E-01
  3.54000000E-01  3.54000000E-01  3.54000000E-01  3.54000000E-01  3.54000000E-01
  3.54000000E-01  3.54000000E-01  3.54000000E-01  3.54000000E-01  3.54000000E-01
  3.54000000E-01  3.54000000E-01  3.54000000E-01  3.54000000E-01  3.54000000E-01
  2.74000000E-01  2.96000000E-01  5.80000000E-02  4.40000000E-02  3.90000000E-02
  3.90000000E-02  3.60000000E-02  3.20000000E-02  2.90000000E-02  3.30000000E-02
  5.50000000E-02  3.90000000E-02  3.30000000E-02  3.00000000E-02  2.80000000E-02
  2.60000000E-02  2.50000000E-02  2.50000000E-02  4.50000000E-02  4.40000000E-02
  3.30000000E-02  2.50000000E-02  2.10000000E-02  1.80000000E-02  1.50000000E-02
  1.80000000E-02  2.10000000E-02  2.50000000E-02  3.30000000E-02  5.00000000E-02
  3.80000000E-02  3.10000000E-02  2.70000000E-02  2.40000000E-02  2.20000000E-02
  2.10000000E-02  4.30000000E-02  4.00000000E-02  3.20000000E-02  2.50000000E-02
  2.10000000E-02  1.80000000E-02  1.60000000E-02  1.90000000E-02  2.20000000E-02
  2.80000000E-02  3.10000000E-02  4.70000000E-02  3.40000000E-02  2.80000000E-02
  2.40000000E-02  2.10000000E-02  1.90000000E-02  1.80000000E-02  3.90000000E-02
  3.60000000E-02  2.50000000E-02  2.50000000E-02  2.50000000E-02  2.60000000E-02
  2.60000000E-02  2.60000000E-02  2.70000000E-02  2.70000000E-02  2.70000000E-02
  2.70000000E-02  2.80000000E-02  2.80000000E-02  2.80000000E-02  3.30000000E-02
  3.30000000E-02  2.60000000E-02  2.10000000E-02  1.80000000E-02  1.60000000E-02
  1.80000000E-02  2.20000000E-02  2.60000000E-02  4.90000000E-02  8.20000000E-02
  3.00000000E-02  2.40000000E-02  2.10000000E-02  1.80000000E-02  1.60000000E-02
  1.50000000E-02  3.50000000E-02  3.60000000E-02  2.20000000E-02  2.30000000E-02
  2.40000000E-02  2.40000000E-02  2.50000000E-02  2.50000000E-02  2.60000000E-02
  2.70000000E-02  2.70000000E-02  2.80000000E-02  2.80000000E-02  2.90000000E-02
  3.00000000E-02  3.00000000E-02  3.10000000E-02  3.10000000E-02  3.10000000E-02
  3.10000000E-02  3.10000000E-02  3.10000000E-02  3.10000000E-02  3.10000000E-02
  3.10000000E-02  3.10000000E-02  3.10000000E-02  3.10000000E-02  3.10000000E-02
  3.10000000E-02  3.10000000E-02  3.10000000E-02  3.10000000E-02  3.10000000E-02
  3.10000000E-02  3.10000000E-02  3.10000000E-02  3.10000000E-02  3.10000000E-02
  3.10000000E-02  3.10000000E-02  3.10000000E-02  3.10000000E-02  3.10000000E-02
  3.10000000E-02  3.10000000E-02  3.10000000E-02  3.10000000E-02  3.10000000E-02
  3.10000000E-02  3.10000000E-02  3.10000000E-02  3.10000000E-02  3.10000000E-02
  3.10000000E-02  3.10000000E-02  3.10000000E-02  3.10000000E-02  3.10000000E-02
  3.10000000E-02  3.10000000E-02  3.10000000E-02  3.10000000E-02  3.10000000E-02
  3.10000000E-02  3.10000000E-02  3.10000000E-02  3.10000000E-02  3.10000000E-02
  3.10000000E-02  3.10000000E-02  3.10000000E-02  3.10000000E-02  3.10000000E-02
  3.10000000E-02  3.10000000E-02  3.10000000E-02  3.10000000E-02  3.10000000E-02
  3.10000000E-02  3.10000000E-02  3.10000000E-02  3.10000000E-02  3.10000000E-02
  3.10000000E-02  3.10000000E-02  3.10000000E-02  3.10000000E-02  3.10000000E-02
  3.10000000E-02  3.10000000E-02  3.10000000E-02  3.10000000E-02  3.10000000E-02
  3.10000000E-02  3.10000000E-02  3.10000000E-02  3.10000000E-02  3.10000000E-02
  3.10000000E-02  3.10000000E-02  3.10000000E-02  3.10000000E-02  3.10000000E-02
  3.10000000E-02  3.10000000E-02  3.10000000E-02  3.10000000E-02  3.10000000E-02
  3.10000000E-02  3.10000000E-02  3.10000000E-02  3.10000000E-02  3.10000000E-02
 -5.92770000E-01 -9.17860000E-01 -2.48668000E+00 -8.36430000E-01 -3.18470000E-01
 -4.55790000E-01 -5.70730000E-01 -6.77940000E-01 -7.69860000E-01 -8.51140000E-01
 -1.51908000E+00 -3.18830000E-01 -2.17900000E-01 -3.01260000E-01 -3.72750000E-01
 -4.15890000E-01 -4.45930000E-01 -5.91320000E-01 -9.56370000E-01 -2.88450000E-01
 -4.87320000E-01 -6.34280000E-01 -7.17490000E-01 -7.91980000E-01 -8.68490000E-01
 -9.17520000E-01 -9.54890000E-01 -9.88460000E-01 -1.50055000E+00 -2.92560000E-01
 -2.14960000E-01 -2.91180000E-01 -3.42080000E-01 -3.84480000E-01 -4.34940000E-01
 -5.24310000E-01 -8.10070000E-01 -2.58460000E-01 -4.35550000E-01 -5.32740000E-01
 -6.08450000E-01 -6.10260000E-01 -7.58920000E-01 -8.90130000E-01 -8.45780000E-01
 -8.69340000E-01 -1.38234000E+00 -2.64850000E-01 -1.97280000E-01 -2.65040000E-01
 -2.94470000E-01 -3.16570000E-01 -3.63590000E-01 -4.57840000E-01 -8.61830000E-01
 -1.33004000E+00 -6.82880000E-01 -6.25540000E-01 -6.35430000E-01 -8.79690000E-01
 -9.02690000E-01 -9.59650000E-01 -1.01869000E+00 -6.81170000E-01 -7.96500000E-01
 -9.04950000E-01 -8.34790000E-01 -9.01560000E-01 -9.74130000E-01 -1.03326000E+00
 -7.15490000E-01 -7.83960000E-01 -8.28380000E-01 -5.61040000E-01 -1.03841000E+00
 -8.62500000E-01 -9.59300000E-01 -1.01755000E+00 -7.64900000E-01 -1.29467000E+00
 -1.92740000E-01 -2.56010000E-01 -3.19820000E-01 -1.94660000E-01 -2.60090000E-01
 -4.27990000E-01  0.00000000E+00  0.00000000E+00  0.00000000E+00  0.00000000E+00
  0.00000000E+00  0.00000000E+00  0.00000000E+00  0.00000000E+00  0.00000000E+00
  0.00000000E+00  0.00000000E+00  0.00000000E+00  0.00000000E+00  0.00000000E+00
  0.00000000E+00  0.00000000E+00  0.00000000E+00  0.00000000E+00  0.00000000E+00
  0.00000000E+00  0.00000000E+00  0.00000000E+00  0.00000000E+00  0.00000000E+00
  0.00000000E+00  0.00000000E+00  0.00000000E+00  0.00000000E+00  0.00000000E+00
  0.00000000E+00  0.00000000E+00  0.00000000E+00  0.00000000E+00  0.00000000E+00
  0.00000000E+00  0.00000000E+00  0.00000000E+00  0.00000000E+00  0.00000000E+00
  0.00000000E+00  0.00000000E+00  0.00000000E+00  0.00000000E+00  0.00000000E+00
  0.00000000E+00  0.00000000E+00  0.00000000E+00  0.00000000E+00  0.00000000E+00
  0.00000000E+00  0.00000000E+00  0.00000000E+00  0.00000000E+00  0.00000000E+00
  0.00000000E+00  0.00000000E+00  0.00000000E+00  0.00000000E+00  0.00000000E+00
  0.00000000E+00  0.00000000E+00  0.00000000E+00  0.00000000E+00  0.00000000E+00
  0.00000000E+00  0.00000000E+00  0.00000000E+00  0.00000000E+00  0.00000000E+00
  0.00000000E+00  0.00000000E+00  0.00000000E+00  0.00000000E+00  0.00000000E+00
  0.00000000E+00  0.00000000E+00  0.00000000E+00  0.00000000E+00  0.00000000E+00
  0.00000000E+00  0.00000000E+00  0.00000000E+00  0.00000000E+00  0.00000000E+00
  0.00000000E+00  0.00000000E+00  0.00000000E+00  0.00000000E+00  0.00000000E+00
  0.00000000E+00  0.00000000E+00  0.00000000E+00  0.00000000E+00  0.00000000E+00
  0.00000000E+00  0.00000000E+00  0.00000000E+00  0.00000000E+00  0.00000000E+00
  0.00000000E+00  0.00000000E+00  0.00000000E+00  0.00000000E+00  0.00000000E+00
  0.00000000E+00  0.00000000E+00  0.00000000E+00  0.00000000E+00  0.00000000E+00
  0.00000000E+00  0.00000000E+00  0.00000000E+00  0.00000000E+00  0.00000000E+00
  1.90440000E+00  1.36430000E+00  4.84000000E-01  7.31600000E+00  9.24030000E+00
  8.78200000E+00  5.61290000E+00  4.83340000E+00  3.24870000E+00  2.71090000E+00
  2.01130000E+00  1.50282000E+01  1.46788000E+01  2.13546000E+01  2.38290000E+01
  1.98022000E+01  1.50468000E+01  1.09745000E+01  1.27219000E+01  1.51949000E+01
  1.57342000E+01  2.79222000E+01  1.61366000E+01  2.21252000E+01  2.45676000E+01
  1.96016000E+01  1.79818000E+01  1.72396000E+01  5.01500000E+00  1.92898000E+01
  2.34477000E+01  2.23993000E+01  2.96586000E+01  2.60081000E+01  2.15580000E+01
  1.69594000E+01  1.56479000E+01  1.86897000E+01  1.93530000E+01  3.43444000E+01
  1.98480000E+01  2.72140000E+01  3.02182000E+01  2.41099000E+01  2.21176000E+01
  2.12047000E+01  7.56690000E+00  2.37264000E+01  2.93879000E+01  3.01278000E+01
  4.19382000E+01  3.85203000E+01  3.39511000E+01  2.75774000E+01  1.56460000E+01
  1.04460000E+01  2.01830000E+01  4.99540000E+01  4.76430000E+01  1.18690000E+01
  1.08670000E+01  9.96100000E+00  9.18700000E+00  3.67980000E+01  1.34070000E+01
  9.38200000E+00  9.81700000E+00  8.90800000E+00  8.40700000E+00  8.05800000E+00
  1.29600000E+01  2.67920000E+01  2.49300000E+01  3.45630000E+01  1.11860000E+01
  1.09440000E+01  1.01270000E+01  9.40400000E+00  1.36660000E+01  7.81000000E+00
  6.93600000E+01  5.86630000E+01  4.79690000E+01  4.52740000E+01  3.92290000E+01
  3.30660000E+01  0.00000000E+00  0.00000000E+00  0.00000000E+00  0.00000000E+00
  0.00000000E+00  0.00000000E+00  0.00000000E+00  0.00000000E+00  0.00000000E+00
  0.00000000E+00  0.00000000E+00  0.00000000E+00  0.00000000E+00  0.00000000E+00
  0.00000000E+00  0.00000000E+00  0.00000000E+00  0.00000000E+00  0.00000000E+00
  0.00000000E+00  0.00000000E+00  0.00000000E+00  0.00000000E+00  0.00000000E+00
  0.00000000E+00  0.00000000E+00  0.00000000E+00  0.00000000E+00  0.00000000E+00
  0.00000000E+00  0.00000000E+00  0.00000000E+00  0.00000000E+00  0.00000000E+00
  0.00000000E+00  0.00000000E+00  0.00000000E+00  0.00000000E+00  0.00000000E+00
  0.00000000E+00  0.00000000E+00  0.00000000E+00  0.00000000E+00  0.00000000E+00
  0.00000000E+00  0.00000000E+00  0.00000000E+00  0.00000000E+00  0.00000000E+00
  0.00000000E+00  0.00000000E+00  0.00000000E+00  0.00000000E+00  0.00000000E+00
  0.00000000E+00  0.00000000E+00  0.00000000E+00  0.00000000E+00  0.00000000E+00
  0.00000000E+00  0.00000000E+00  0.00000000E+00  0.00000000E+00  0.00000000E+00
  0.00000000E+00  0.00000000E+00  0.00000000E+00  0.00000000E+00  0.00000000E+00
  0.00000000E+00  0.00000000E+00  0.00000000E+00  0.00000000E+00  0.00000000E+00
  0.00000000E+00  0.00000000E+00  0.00000000E+00  0.00000000E+00  0.00000000E+00
  0.00000000E+00  0.00000000E+00  0.00000000E+00  0.00000000E+00  0.00000000E+00
  0.00000000E+00  0.00000000E+00  0.00000000E+00  0.00000000E+00  0.00000000E+00
  0.00000000E+00  0.00000000E+00  0.00000000E+00  0.00000000E+00  0.00000000E+00
  0.00000000E+00  0.00000000E+00  0.00000000E+00  0.00000000E+00  0.00000000E+00
  0.00000000E+00  0.00000000E+00  0.00000000E+00  0.00000000E+00  0.00000000E+00
  0.00000000E+00  0.00000000E+00  0.00000000E+00  0.00000000E+00  0.00000000E+00
  0.00000000E+00  0.00000000E+00  0.00000000E+00  0.00000000E+00  0.00000000E+00
  0.00000000E+00  0.00000000E+00  0.00000000E+00  0.00000000E+00  0.00000000E+00
  0.00000000E+00  0.00000000E+00  0.00000000E+00  0.00000000E+00  0.00000000E+00
  0.00000000E+00  0.00000000E+00  0.00000000E+00  0.00000000E+00  0.00000000E+00
  0.00000000E+00  0.00000000E+00  0.00000000E+00  0.00000000E+00  0.00000000E+00
  0.00000000E+00  0.00000000E+00  0.00000000E+00  0.00000000E+00  0.00000000E+00
  0.00000000E+00  0.00000000E+00  0.00000000E+00  0.00000000E+00  0.00000000E+00
  0.00000000E+00  0.00000000E+00  0.00000000E+00  0.00000000E+00  0.00000000E+00
  0.00000000E+00  0.00000000E+00  0.00000000E+00  0.00000000E+00  0.00000000E+00
  0.00000000E+00  0.00000000E+00  0.00000000E+00  0.00000000E+00  0.00000000E+00
  0.00000000E+00  0.00000000E+00  0.00000000E+00  0.00000000E+00  0.00000000E+00
  0.00000000E+00  0.00000000E+00  0.00000000E+00  0.00000000E+00  0.00000000E+00
  0.00000000E+00  0.00000000E+00  0.00000000E+00  0.00000000E+00  0.00000000E+00
  0.00000000E+00  0.00000000E+00  0.00000000E+00  0.00000000E+00  0.00000000E+00
  0.00000000E+00  0.00000000E+00  0.00000000E+00  0.00000000E+00  0.00000000E+00
  0.00000000E+00  0.00000000E+00  0.00000000E+00  0.00000000E+00  0.00000000E+00
  0.00000000E+00  0.00000000E+00  0.00000000E+00  0.00000000E+00  0.00000000E+00
  0.00000000E+00  0.00000000E+00  0.00000000E+00  0.00000000E+00  0.00000000E+00
  0.00000000E+00  0.00000000E+00  0.00000000E+00  0.00000000E+00  0.00000000E+00
  0.00000000E+00  0.00000000E+00  0.00000000E+00  0.00000000E+00  0.00000000E+00
  0.00000000E+00  0.00000000E+00  0.00000000E+00  0.00000000E+00  0.00000000E+00
  0.00000000E+00  0.00000000E+00  0.00000000E+00  0.00000000E+00  0.00000000E+00
  0.00000000E+00  0.00000000E+00  0.00000000E+00  0.00000000E+00  0.00000000E+00
  0.00000000E+00  0.00000000E+00  0.00000000E+00  0.00000000E+00  0.00000000E+00
  0.00000000E+00  0.00000000E+00  0.00000000E+00  0.00000000E+00  0.00000000E+00
  0.00000000E+00  0.00000000E+00  0.00000000E+00  0.00000000E+00  0.00000000E+00
  0.00000000E+00  0.00000000E+00  0.00000000E+00  0.00000000E+00  0.00000000E+00
  0.00000000E+00  0.00000000E+00  0.00000000E+00  0.00000000E+00  0.00000000E+00
  0.00000000E+00  0.00000000E+00  0.00000000E+00  0.00000000E+00  0.00000000E+00
  0.00000000E+00  0.00000000E+00  0.00000000E+00  0.00000000E+00  0.00000000E+00
  0.00000000E+00  0.00000000E+00  0.00000000E+00  0.00000000E+00  0.00000000E+00
  0.00000000E+00  0.00000000E+00  0.00000000E+00  0.00000000E+00  0.00000000E+00
  0.00000000E+00  0.00000000E+00  0.00000000E+00  0.00000000E+00  0.00000000E+00
  0.00000000E+00  0.00000000E+00  0.00000000E+00  0.00000000E+00  0.00000000E+00
  0.00000000E+00  0.00000000E+00  0.00000000E+00  0.00000000E+00  0.00000000E+00
  0.00000000E+00  0.00000000E+00  0.00000000E+00  0.00000000E+00  0.00000000E+00
  0.00000000E+00  0.00000000E+00  0.00000000E+00  0.00000000E+00  0.00000000E+00
  0.00000000E+00  0.00000000E+00  0.00000000E+00  0.00000000E+00  0.00000000E+00
  0.00000000E+00  0.00000000E+00  0.00000000E+00  0.00000000E+00  0.00000000E+00
  0.00000000E+00  0.00000000E+00  0.00000000E+00  0.00000000E+00  0.00000000E+00
  0.00000000E+00  0.00000000E+00  0.00000000E+00  0.00000000E+00  0.00000000E+00
  0.00000000E+00  0.00000000E+00  0.00000000E+00  0.00000000E+00  0.00000000E+00
  0.00000000E+00  0.00000000E+00  0.00000000E+00  0.00000000E+00  0.00000000E+00
  0.00000000E+00  0.00000000E+00  0.00000000E+00  0.00000000E+00  0.00000000E+00
  0.00000000E+00  0.00000000E+00  0.00000000E+00  0.00000000E+00  0.00000000E+00
  0.00000000E+00  0.00000000E+00  0.00000000E+00  0.00000000E+00  0.00000000E+00
  0.00000000E+00  0.00000000E+00  0.00000000E+00  0.00000000E+00  0.00000000E+00
  0.00000000E+00  0.00000000E+00  0.00000000E+00  0.00000000E+00  0.00000000E+00
  0.00000000E+00  0.00000000E+00  0.00000000E+00  0.00000000E+00  0.00000000E+00
  0.00000000E+00  0.00000000E+00  0.00000000E+00  0.00000000E+00  0.00000000E+00
  0.00000000E+00  0.00000000E+00  0.00000000E+00  0.00000000E+00  0.00000000E+00
  0.00000000E+00  0.00000000E+00  0.00000000E+00  0.00000000E+00  0.00000000E+00
  0.00000000E+00  0.00000000E+00  0.00000000E+00  0.00000000E+00  0.00000000E+00
  0.00000000E+00  0.00000000E+00  0.00000000E+00  0.00000000E+00  0.00000000E+00
  0.00000000E+00  0.00000000E+00  0.00000000E+00  0.00000000E+00  0.00000000E+00
  0.00000000E+00  0.00000000E+00  0.00000000E+00  0.00000000E+00  0.00000000E+00
  0.00000000E+00  0.00000000E+00  0.00000000E+00  0.00000000E+00  0.00000000E+00
  0.00000000E+00  0.00000000E+00  0.00000000E+00  0.00000000E+00  0.00000000E+00
  0.00000000E+00  0.00000000E+00  0.00000000E+00  0.00000000E+00  0.00000000E+00
  0.00000000E+00  0.00000000E+00  0.00000000E+00  0.00000000E+00  0.00000000E+00
  0.00000000E+00  0.00000000E+00  0.00000000E+00  0.00000000E+00  0.00000000E+00
  0.00000000E+00  0.00000000E+00  0.00000000E+00  0.00000000E+00  0.00000000E+00
  0.00000000E+00  0.00000000E+00  0.00000000E+00  0.00000000E+00  0.00000000E+00
  0.00000000E+00  0.00000000E+00  0.00000000E+00  0.00000000E+00  0.00000000E+00
  0.00000000E+00  0.00000000E+00  0.00000000E+00  0.00000000E+00  0.00000000E+00
  0.00000000E+00  0.00000000E+00  0.00000000E+00  0.00000000E+00  0.00000000E+00
  0.00000000E+00  0.00000000E+00  0.00000000E+00  0.00000000E+00  0.00000000E+00
  0.00000000E+00  0.00000000E+00  0.00000000E+00  0.00000000E+00  0.00000000E+00
  0.00000000E+00  0.00000000E+00  0.00000000E+00  0.00000000E+00  0.00000000E+00
  0.00000000E+00  0.00000000E+00  0.00000000E+00  0.00000000E+00  0.00000000E+00
  0.00000000E+00  0.00000000E+00  0.00000000E+00  0.00000000E+00  0.00000000E+00
  0.00000000E+00  0.00000000E+00  0.00000000E+00  0.00000000E+00  0.00000000E+00
  0.00000000E+00  0.00000000E+00  0.00000000E+00  0.00000000E+00  0.00000000E+00
  0.00000000E+00  0.00000000E+00  0.00000000E+00  0.00000000E+00  0.00000000E+00
  0.00000000E+00  0.00000000E+00  0.00000000E+00  0.00000000E+00  0.00000000E+00
  0.00000000E+00  0.00000000E+00  0.00000000E+00  0.00000000E+00  0.00000000E+00
  0.00000000E+00  0.00000000E+00  0.00000000E+00  0.00000000E+00  0.00000000E+00
  0.00000000E+00  0.00000000E+00  0.00000000E+00  0.00000000E+00  0.00000000E+00
  0.00000000E+00  0.00000000E+00  0.00000000E+00  0.00000000E+00  0.00000000E+00
  0.00000000E+00  0.00000000E+00  0.00000000E+00  0.00000000E+00  0.00000000E+00
  0.00000000E+00  0.00000000E+00  0.00000000E+00  0.00000000E+00  0.00000000E+00
  0.00000000E+00  0.00000000E+00  0.00000000E+00  0.00000000E+00  0.00000000E+00
  0.00000000E+00  0.00000000E+00  0.00000000E+00  0.00000000E+00  0.00000000E+00
  0.00000000E+00  0.00000000E+00  0.00000000E+00  0.00000000E+00  0.00000000E+00
  0.00000000E+00  0.00000000E+00  0.00000000E+00  0.00000000E+00  0.00000000E+00
  0.00000000E+00  0.00000000E+00  0.00000000E+00  0.00000000E+00  0.00000000E+00
  0.00000000E+00  0.00000000E+00  0.00000000E+00  0.00000000E+00  0.00000000E+00
  0.00000000E+00  0.00000000E+00  0.00000000E+00  0.00000000E+00  0.00000000E+00
  0.00000000E+00  0.00000000E+00  0.00000000E+00  0.00000000E+00  0.00000000E+00
  0.00000000E+00  0.00000000E+00  0.00000000E+00  0.00000000E+00  0.00000000E+00
  0.00000000E+00  0.00000000E+00  0.00000000E+00  0.00000000E+00  0.00000000E+00
  0.00000000E+00  0.00000000E+00  0.00000000E+00  0.00000000E+00  0.00000000E+00
  0.00000000E+00  0.00000000E+00  0.00000000E+00  0.00000000E+00  0.00000000E+00
  0.00000000E+00  0.00000000E+00  0.00000000E+00  0.00000000E+00  0.00000000E+00
  0.00000000E+00  0.00000000E+00  0.00000000E+00  0.00000000E+00  0.00000000E+00
  0.00000000E+00  0.00000000E+00  0.00000000E+00  0.00000000E+00  0.00000000E+00
  0.00000000E+00  0.00000000E+00  0.00000000E+00  0.00000000E+00  0.00000000E+00
  0.00000000E+00  0.00000000E+00  0.00000000E+00  0.00000000E+00  0.00000000E+00
  0.00000000E+00  0.00000000E+00  0.00000000E+00  0.00000000E+00  0.00000000E+00
  0.00000000E+00  0.00000000E+00  0.00000000E+00  0.00000000E+00  0.00000000E+00
  0.00000000E+00  0.00000000E+00  0.00000000E+00  0.00000000E+00  0.00000000E+00
  0.00000000E+00  0.00000000E+00  0.00000000E+00  0.00000000E+00  0.00000000E+00
  0.00000000E+00  0.00000000E+00  0.00000000E+00  0.00000000E+00  0.00000000E+00
  0.00000000E+00  0.00000000E+00  0.00000000E+00  0.00000000E+00  0.00000000E+00
  0.00000000E+00  0.00000000E+00  0.00000000E+00  0.00000000E+00  0.00000000E+00
  0.00000000E+00  0.00000000E+00  0.00000000E+00  0.00000000E+00  0.00000000E+00
  0.00000000E+00  0.00000000E+00  0.00000000E+00  0.00000000E+00  0.00000000E+00
  0.00000000E+00  0.00000000E+00  0.00000000E+00  0.00000000E+00  0.00000000E+00
  0.00000000E+00  0.00000000E+00  0.00000000E+00  0.00000000E+00  0.00000000E+00
  0.00000000E+00  0.00000000E+00  0.00000000E+00  0.00000000E+00  0.00000000E+00
  0.00000000E+00  0.00000000E+00  0.00000000E+00  0.00000000E+00  0.00000000E+00
  0.00000000E+00  0.00000000E+00  0.00000000E+00  0.00000000E+00  0.00000000E+00
  0.00000000E+00  0.00000000E+00  0.00000000E+00  0.00000000E+00  0.00000000E+00
  0.00000000E+00  0.00000000E+00  0.00000000E+00  0.00000000E+00  0.00000000E+00
  0.00000000E+00  0.00000000E+00  0.00000000E+00  0.00000000E+00  0.00000000E+00
  0.00000000E+00  0.00000000E+00  0.00000000E+00  0.00000000E+00  0.00000000E+00
  0.00000000E+00  0.00000000E+00  0.00000000E+00  0.00000000E+00  0.00000000E+00
  0.00000000E+00  0.00000000E+00  0.00000000E+00  0.00000000E+00  0.00000000E+00
  0.00000000E+00  0.00000000E+00  0.00000000E+00  0.00000000E+00  0.00000000E+00
  0.00000000E+00  0.00000000E+00  0.00000000E+00  0.00000000E+00  0.00000000E+00
  0.00000000E+00  0.00000000E+00  0.00000000E+00  0.00000000E+00  0.00000000E+00
  0.00000000E+00  0.00000000E+00  0.00000000E+00  0.00000000E+00  0.00000000E+00
  0.00000000E+00  0.00000000E+00  0.00000000E+00  0.00000000E+00  0.00000000E+00
  0.00000000E+00  0.00000000E+00  0.00000000E+00  0.00000000E+00  0.00000000E+00
  0.00000000E+00  0.00000000E+00  0.00000000E+00  0.00000000E+00  0.00000000E+00
  0.00000000E+00  0.00000000E+00  0.00000000E+00  0.00000000E+00  0.00000000E+00
  0.00000000E+00  0.00000000E+00  0.00000000E+00  0.00000000E+00  0.00000000E+00
  0.00000000E+00  0.00000000E+00  0.00000000E+00  0.00000000E+00  0.00000000E+00
  0.00000000E+00  0.00000000E+00  0.00000000E+00  0.00000000E+00  0.00000000E+00
  0.00000000E+00  0.00000000E+00  0.00000000E+00  0.00000000E+00  0.00000000E+00
  0.00000000E+00  0.00000000E+00  0.00000000E+00  0.00000000E+00  0.00000000E+00
  0.00000000E+00  0.00000000E+00  0.00000000E+00  0.00000000E+00  0.00000000E+00
  0.00000000E+00  0.00000000E+00  0.00000000E+00  0.00000000E+00  0.00000000E+00
  0.00000000E+00  0.00000000E+00  0.00000000E+00  0.00000000E+00  0.00000000E+00
  0.00000000E+00  0.00000000E+00  0.00000000E+00  0.00000000E+00  0.00000000E+00
  0.00000000E+00  0.00000000E+00  0.00000000E+00  0.00000000E+00  0.00000000E+00
  0.00000000E+00  0.00000000E+00  0.00000000E+00  0.00000000E+00  0.00000000E+00
  0.00000000E+00  0.00000000E+00  0.00000000E+00  0.00000000E+00  0.00000000E+00
  0.00000000E+00  0.00000000E+00  0.00000000E+00  0.00000000E+00  0.00000000E+00
  0.00000000E+00  0.00000000E+00  0.00000000E+00  0.00000000E+00  0.00000000E+00
  0.00000000E+00  0.00000000E+00  0.00000000E+00  0.00000000E+00  0.00000000E+00
  0.00000000E+00  0.00000000E+00  0.00000000E+00  0.00000000E+00  0.00000000E+00
  0.00000000E+00  0.00000000E+00  0.00000000E+00  0.00000000E+00  0.00000000E+00
  0.00000000E+00  0.00000000E+00  0.00000000E+00  0.00000000E+00  0.00000000E+00
  0.00000000E+00  0.00000000E+00  0.00000000E+00  0.00000000E+00  0.00000000E+00
  0.00000000E+00  0.00000000E+00  0.00000000E+00  0.00000000E+00  0.00000000E+00
  0.00000000E+00  0.00000000E+00  0.00000000E+00  0.00000000E+00  0.00000000E+00
  0.00000000E+00  0.00000000E+00  0.00000000E+00  0.00000000E+00  0.00000000E+00
  0.00000000E+00  0.00000000E+00  0.00000000E+00  0.00000000E+00  0.00000000E+00
  0.00000000E+00  0.00000000E+00  0.00000000E+00  0.00000000E+00  0.00000000E+00
  0.00000000E+00  0.00000000E+00  0.00000000E+00  0.00000000E+00  0.00000000E+00
  0.00000000E+00  0.00000000E+00  0.00000000E+00  0.00000000E+00  0.00000000E+00
  0.00000000E+00  0.00000000E+00  0.00000000E+00  0.00000000E+00  0.00000000E+00
  0.00000000E+00  0.00000000E+00  0.00000000E+00  0.00000000E+00  0.00000000E+00
  0.00000000E+00  0.00000000E+00  0.00000000E+00  0.00000000E+00  0.00000000E+00
  0.00000000E+00  0.00000000E+00  0.00000000E+00  0.00000000E+00  0.00000000E+00
  0.00000000E+00  0.00000000E+00  0.00000000E+00  0.00000000E+00  0.00000000E+00
  0.00000000E+00  0.00000000E+00  0.00000000E+00  0.00000000E+00  0.00000000E+00
  0.00000000E+00  0.00000000E+00  0.00000000E+00  0.00000000E+00  0.00000000E+00
  0.00000000E+00  0.00000000E+00  0.00000000E+00  0.00000000E+00  0.00000000E+00
  0.00000000E+00  0.00000000E+00  0.00000000E+00  0.00000000E+00  0.00000000E+00
  0.00000000E+00  0.00000000E+00  0.00000000E+00  0.00000000E+00  0.00000000E+00
  0.00000000E+00  0.00000000E+00  0.00000000E+00  0.00000000E+00  0.00000000E+00
  0.00000000E+00  0.00000000E+00  0.00000000E+00  0.00000000E+00  0.00000000E+00
  0.00000000E+00  0.00000000E+00  0.00000000E+00  0.00000000E+00  0.00000000E+00
  0.00000000E+00  0.00000000E+00  0.00000000E+00  0.00000000E+00  0.00000000E+00
  0.00000000E+00  0.00000000E+00  0.00000000E+00  0.00000000E+00  0.00000000E+00
  0.00000000E+00  0.00000000E+00  0.00000000E+00  0.00000000E+00  0.00000000E+00
  0.00000000E+00  0.00000000E+00  0.00000000E+00  0.00000000E+00  0.00000000E+00
  0.00000000E+00  0.00000000E+00  0.00000000E+00  0.00000000E+00  0.00000000E+00
  0.00000000E+00  0.00000000E+00  0.00000000E+00  0.00000000E+00  0.00000000E+00
  0.00000000E+00  0.00000000E+00  0.00000000E+00  0.00000000E+00  0.00000000E+00
  0.00000000E+00  0.00000000E+00  0.00000000E+00  0.00000000E+00  0.00000000E+00
  0.00000000E+00  0.00000000E+00  0.00000000E+00  0.00000000E+00  0.00000000E+00
  0.00000000E+00  0.00000000E+00  0.00000000E+00  0.00000000E+00  0.00000000E+00
  0.00000000E+00  0.00000000E+00  0.00000000E+00  0.00000000E+00  0.00000000E+00
  0.00000000E+00  0.00000000E+00  0.00000000E+00  0.00000000E+00  0.00000000E+00
  0.00000000E+00  0.00000000E+00  0.00000000E+00  0.00000000E+00  0.00000000E+00
  0.00000000E+00  0.00000000E+00  0.00000000E+00  0.00000000E+00  0.00000000E+00
  0.00000000E+00  0.00000000E+00  0.00000000E+00  0.00000000E+00  0.00000000E+00
  0.00000000E+00  0.00000000E+00  0.00000000E+00  0.00000000E+00  0.00000000E+00
  0.00000000E+00  0.00000000E+00  0.00000000E+00  0.00000000E+00  0.00000000E+00
  0.00000000E+00  0.00000000E+00  0.00000000E+00  0.00000000E+00  0.00000000E+00
  0.00000000E+00  0.00000000E+00  0.00000000E+00  0.00000000E+00  0.00000000E+00
  0.00000000E+00  0.00000000E+00  0.00000000E+00  0.00000000E+00  0.00000000E+00
  0.00000000E+00  0.00000000E+00  0.00000000E+00  0.00000000E+00  0.00000000E+00
  0.00000000E+00  0.00000000E+00  0.00000000E+00  0.00000000E+00  0.00000000E+00
  0.00000000E+00  0.00000000E+00  0.00000000E+00  0.00000000E+00  0.00000000E+00
  0.00000000E+00  0.00000000E+00  0.00000000E+00  0.00000000E+00  0.00000000E+00
  0.00000000E+00  0.00000000E+00  0.00000000E+00  0.00000000E+00  0.00000000E+00
  0.00000000E+00  0.00000000E+00  0.00000000E+00  0.00000000E+00  0.00000000E+00
  0.00000000E+00  0.00000000E+00  0.00000000E+00  0.00000000E+00  0.00000000E+00
  0.00000000E+00  0.00000000E+00  0.00000000E+00  0.00000000E+00  0.00000000E+00
  0.00000000E+00  0.00000000E+00  0.00000000E+00  0.00000000E+00  0.00000000E+00
  0.00000000E+00  0.00000000E+00  0.00000000E+00  0.00000000E+00  0.00000000E+00
  0.00000000E+00  0.00000000E+00  0.00000000E+00  0.00000000E+00  0.00000000E+00
  0.00000000E+00  0.00000000E+00  0.00000000E+00  0.00000000E+00  0.00000000E+00
  0.00000000E+00  0.00000000E+00  0.00000000E+00  0.00000000E+00  0.00000000E+00
  0.00000000E+00  0.00000000E+00  0.00000000E+00  0.00000000E+00  0.00000000E+00
  0.00000000E+00  0.00000000E+00  0.00000000E+00  0.00000000E+00  0.00000000E+00
  0.00000000E+00  0.00000000E+00  0.00000000E+00  0.00000000E+00  0.00000000E+00
  0.00000000E+00  0.00000000E+00  0.00000000E+00  0.00000000E+00  0.00000000E+00
  0.00000000E+00  0.00000000E+00  0.00000000E+00  0.00000000E+00  0.00000000E+00
  0.00000000E+00  0.00000000E+00  0.00000000E+00  0.00000000E+00  0.00000000E+00
  0.00000000E+00  0.00000000E+00  0.00000000E+00  0.00000000E+00  0.00000000E+00
  0.00000000E+00  0.00000000E+00  0.00000000E+00  0.00000000E+00  0.00000000E+00
  0.00000000E+00  0.00000000E+00  0.00000000E+00  0.00000000E+00  0.00000000E+00
  0.00000000E+00  0.00000000E+00  0.00000000E+00  0.00000000E+00  0.00000000E+00
  0.00000000E+00  0.00000000E+00  0.00000000E+00  0.00000000E+00  0.00000000E+00
  0.00000000E+00  0.00000000E+00  0.00000000E+00  0.00000000E+00  0.00000000E+00
  0.00000000E+00  0.00000000E+00  0.00000000E+00  0.00000000E+00  0.00000000E+00
  0.00000000E+00  0.00000000E+00  0.00000000E+00  0.00000000E+00  0.00000000E+00
  0.00000000E+00  0.00000000E+00  0.00000000E+00  0.00000000E+00  0.00000000E+00
  0.00000000E+00  0.00000000E+00  0.00000000E+00  0.00000000E+00  0.00000000E+00
  0.00000000E+00  0.00000000E+00  0.00000000E+00  0.00000000E+00  0.00000000E+00
  0.00000000E+00  0.00000000E+00  0.00000000E+00  0.00000000E+00  0.00000000E+00
  0.00000000E+00  0.00000000E+00  0.00000000E+00  0.00000000E+00  0.00000000E+00
  0.00000000E+00  0.00000000E+00  0.00000000E+00  0.00000000E+00  0.00000000E+00
  0.00000000E+00  0.00000000E+00  0.00000000E+00  0.00000000E+00  0.00000000E+00
  0.00000000E+00  0.00000000E+00  0.00000000E+00  0.00000000E+00  0.00000000E+00
  0.00000000E+00  0.00000000E+00  0.00000000E+00  0.00000000E+00  0.00000000E+00
  0.00000000E+00  0.00000000E+00  0.00000000E+00  0.00000000E+00  0.00000000E+00
  0.00000000E+00  0.00000000E+00  0.00000000E+00  0.00000000E+00  0.00000000E+00
  0.00000000E+00  0.00000000E+00  0.00000000E+00  0.00000000E+00  0.00000000E+00
  0.00000000E+00  0.00000000E+00  0.00000000E+00  0.00000000E+00  0.00000000E+00
  0.00000000E+00  0.00000000E+00  0.00000000E+00  0.00000000E+00  0.00000000E+00
  0.00000000E+00  0.00000000E+00  0.00000000E+00  0.00000000E+00  0.00000000E+00
  0.00000000E+00  0.00000000E+00  0.00000000E+00  0.00000000E+00  0.00000000E+00
  0.00000000E+00  0.00000000E+00  0.00000000E+00  0.00000000E+00  0.00000000E+00
  0.00000000E+00  0.00000000E+00  0.00000000E+00  0.00000000E+00  0.00000000E+00
  0.00000000E+00  0.00000000E+00  0.00000000E+00  0.00000000E+00  0.00000000E+00
  0.00000000E+00  0.00000000E+00  0.00000000E+00  0.00000000E+00  0.00000000E+00
  0.00000000E+00  0.00000000E+00  0.00000000E+00  0.00000000E+00  0.00000000E+00
  0.00000000E+00  0.00000000E+00  0.00000000E+00  0.00000000E+00  0.00000000E+00
  0.00000000E+00  0.00000000E+00  0.00000000E+00  0.00000000E+00  0.00000000E+00
  0.00000000E+00  0.00000000E+00  0.00000000E+00  0.00000000E+00  0.00000000E+00
  0.00000000E+00  0.00000000E+00  0.00000000E+00  0.00000000E+00  0.00000000E+00
  0.00000000E+00  0.00000000E+00  0.00000000E+00  0.00000000E+00  0.00000000E+00
  0.00000000E+00  0.00000000E+00  0.00000000E+00  0.00000000E+00  0.00000000E+00
  0.00000000E+00  0.00000000E+00  0.00000000E+00  0.00000000E+00  0.00000000E+00
  0.00000000E+00  0.00000000E+00  0.00000000E+00  0.00000000E+00  0.00000000E+00
  0.00000000E+00  0.00000000E+00  0.00000000E+00  0.00000000E+00  0.00000000E+00
  0.00000000E+00  0.00000000E+00  0.00000000E+00  0.00000000E+00  0.00000000E+00
  0.00000000E+00  0.00000000E+00  0.00000000E+00  0.00000000E+00  0.00000000E+00
  0.00000000E+00  0.00000000E+00  0.00000000E+00  0.00000000E+00  0.00000000E+00
  0.00000000E+00  0.00000000E+00  0.00000000E+00  0.00000000E+00  0.00000000E+00
  0.00000000E+00  0.00000000E+00  0.00000000E+00  0.00000000E+00  0.00000000E+00
  0.00000000E+00  0.00000000E+00  0.00000000E+00  0.00000000E+00  0.00000000E+00
  0.00000000E+00  0.00000000E+00  0.00000000E+00  0.00000000E+00  0.00000000E+00
  0.00000000E+00  0.00000000E+00  0.00000000E+00  0.00000000E+00  0.00000000E+00
  0.00000000E+00  0.00000000E+00  0.00000000E+00  0.00000000E+00  0.00000000E+00
  0.00000000E+00  0.00000000E+00  0.00000000E+00  0.00000000E+00  0.00000000E+00
  0.00000000E+00  0.00000000E+00  0.00000000E+00  0.00000000E+00  0.00000000E+00
  0.00000000E+00  0.00000000E+00  0.00000000E+00  0.00000000E+00  0.00000000E+00
  0.00000000E+00  0.00000000E+00  0.00000000E+00  0.00000000E+00  0.00000000E+00
  0.00000000E+00  0.00000000E+00  0.00000000E+00  0.00000000E+00  0.00000000E+00
  0.00000000E+00  0.00000000E+00  0.00000000E+00  0.00000000E+00  0.00000000E+00
  0.00000000E+00  0.00000000E+00  0.00000000E+00  0.00000000E+00  0.00000000E+00
  0.00000000E+00  0.00000000E+00  0.00000000E+00  0.00000000E+00  0.00000000E+00
  0.00000000E+00  0.00000000E+00  0.00000000E+00  0.00000000E+00  0.00000000E+00
  0.00000000E+00  0.00000000E+00  0.00000000E+00  0.00000000E+00  0.00000000E+00
  0.00000000E+00  0.00000000E+00  0.00000000E+00  0.00000000E+00  0.00000000E+00
  0.00000000E+00  0.00000000E+00  0.00000000E+00  0.00000000E+00  0.00000000E+00
  0.00000000E+00  0.00000000E+00  0.00000000E+00  0.00000000E+00  0.00000000E+00
  0.00000000E+00  0.00000000E+00  0.00000000E+00  0.00000000E+00  0.00000000E+00
  0.00000000E+00  0.00000000E+00  0.00000000E+00  0.00000000E+00  0.00000000E+00
  0.00000000E+00  0.00000000E+00  0.00000000E+00  0.00000000E+00  0.00000000E+00
  0.00000000E+00  0.00000000E+00  0.00000000E+00  0.00000000E+00  0.00000000E+00
  0.00000000E+00  0.00000000E+00  0.00000000E+00  0.00000000E+00  0.00000000E+00
  0.00000000E+00  0.00000000E+00  0.00000000E+00  0.00000000E+00  0.00000000E+00
  0.00000000E+00  0.00000000E+00  0.00000000E+00  0.00000000E+00  0.00000000E+00
  0.00000000E+00  0.00000000E+00  0.00000000E+00  0.00000000E+00  0.00000000E+00
  0.00000000E+00  0.00000000E+00  0.00000000E+00  0.00000000E+00  0.00000000E+00
  0.00000000E+00  0.00000000E+00  0.00000000E+00  0.00000000E+00  0.00000000E+00
  0.00000000E+00  0.00000000E+00  0.00000000E+00  0.00000000E+00  0.00000000E+00
  0.00000000E+00  0.00000000E+00  0.00000000E+00  0.00000000E+00  0.00000000E+00
  0.00000000E+00  0.00000000E+00  0.00000000E+00  0.00000000E+00  0.00000000E+00
  0.00000000E+00  0.00000000E+00  0.00000000E+00  0.00000000E+00  0.00000000E+00
  0.00000000E+00  0.00000000E+00  0.00000000E+00  0.00000000E+00  0.00000000E+00
  0.00000000E+00  0.00000000E+00  0.00000000E+00  0.00000000E+00  0.00000000E+00
  0.00000000E+00  0.00000000E+00  0.00000000E+00  0.00000000E+00  0.00000000E+00
  0.00000000E+00  0.00000000E+00  0.00000000E+00  0.00000000E+00  0.00000000E+00
  0.00000000E+00  0.00000000E+00  0.00000000E+00  0.00000000E+00  0.00000000E+00
  0.00000000E+00  0.00000000E+00  0.00000000E+00  0.00000000E+00  0.00000000E+00
  0.00000000E+00  0.00000000E+00  0.00000000E+00  0.00000000E+00  0.00000000E+00
  0.00000000E+00  0.00000000E+00  0.00000000E+00  0.00000000E+00  0.00000000E+00
  0.00000000E+00  0.00000000E+00  0.00000000E+00  0.00000000E+00  0.00000000E+00
  0.00000000E+00  0.00000000E+00  0.00000000E+00  0.00000000E+00  0.00000000E+00
  0.00000000E+00  0.00000000E+00  0.00000000E+00  0.00000000E+00  0.00000000E+00
  0.00000000E+00  0.00000000E+00  0.00000000E+00  0.00000000E+00  0.00000000E+00
  0.00000000E+00  0.00000000E+00  0.00000000E+00  0.00000000E+00  0.00000000E+00
  0.00000000E+00  0.00000000E+00  0.00000000E+00  0.00000000E+00  0.00000000E+00
  0.00000000E+00  0.00000000E+00  0.00000000E+00  0.00000000E+00  0.00000000E+00
  0.00000000E+00  0.00000000E+00  0.00000000E+00  0.00000000E+00  0.00000000E+00
  0.00000000E+00  0.00000000E+00  0.00000000E+00  0.00000000E+00  0.00000000E+00
  0.00000000E+00  0.00000000E+00  0.00000000E+00  0.00000000E+00  0.00000000E+00
  0.00000000E+00  0.00000000E+00  0.00000000E+00  0.00000000E+00  0.00000000E+00
  0.00000000E+00  0.00000000E+00  0.00000000E+00  0.00000000E+00  0.00000000E+00
  0.00000000E+00  0.00000000E+00  0.00000000E+00  0.00000000E+00  0.00000000E+00
  0.00000000E+00  0.00000000E+00  0.00000000E+00  0.00000000E+00  0.00000000E+00
  0.00000000E+00  0.00000000E+00  0.00000000E+00  0.00000000E+00  0.00000000E+00
  0.00000000E+00  0.00000000E+00  0.00000000E+00  0.00000000E+00  0.00000000E+00
  0.00000000E+00  0.00000000E+00  0.00000000E+00  0.00000000E+00  0.00000000E+00
  0.00000000E+00  0.00000000E+00  0.00000000E+00  0.00000000E+00  0.00000000E+00
  0.00000000E+00  0.00000000E+00  0.00000000E+00  0.00000000E+00  0.00000000E+00
  0.00000000E+00  0.00000000E+00  0.00000000E+00  0.00000000E+00  0.00000000E+00
  0.00000000E+00  0.00000000E+00  0.00000000E+00  0.00000000E+00  0.00000000E+00
  0.00000000E+00  0.00000000E+00  0.00000000E+00  0.00000000E+00  0.00000000E+00
  0.00000000E+00  0.00000000E+00  0.00000000E+00  0.00000000E+00  0.00000000E+00
  0.00000000E+00  0.00000000E+00  0.00000000E+00  0.00000000E+00  0.00000000E+00
  0.00000000E+00  0.00000000E+00  0.00000000E+00  0.00000000E+00  0.00000000E+00
  0.00000000E+00  0.00000000E+00  0.00000000E+00  0.00000000E+00  0.00000000E+00
  0.00000000E+00  0.00000000E+00  0.00000000E+00  0.00000000E+00  0.00000000E+00
  0.00000000E+00  0.00000000E+00  0.00000000E+00  0.00000000E+00  0.00000000E+00
  0.00000000E+00  0.00000000E+00  0.00000000E+00  0.00000000E+00  0.00000000E+00
  0.00000000E+00  0.00000000E+00  0.00000000E+00  0.00000000E+00  0.00000000E+00
  0.00000000E+00  0.00000000E+00  0.00000000E+00  0.00000000E+00  0.00000000E+00
  0.00000000E+00  0.00000000E+00  0.00000000E+00  0.00000000E+00  0.00000000E+00
  0.00000000E+00  0.00000000E+00  0.00000000E+00  0.00000000E+00  0.00000000E+00
  0.00000000E+00  0.00000000E+00  0.00000000E+00  0.00000000E+00  0.00000000E+00
  0.00000000E+00  0.00000000E+00  0.00000000E+00  0.00000000E+00  0.00000000E+00
  0.00000000E+00  0.00000000E+00  0.00000000E+00  0.00000000E+00  0.00000000E+00
  0.00000000E+00  0.00000000E+00  0.00000000E+00  0.00000000E+00  0.00000000E+00
  0.00000000E+00  0.00000000E+00  0.00000000E+00  0.00000000E+00  0.00000000E+00
  0.00000000E+00  0.00000000E+00  0.00000000E+00  0.00000000E+00  0.00000000E+00
  0.00000000E+00  0.00000000E+00  0.00000000E+00  0.00000000E+00  0.00000000E+00
  0.00000000E+00  0.00000000E+00  0.00000000E+00  0.00000000E+00  0.00000000E+00
  0.00000000E+00  0.00000000E+00  0.00000000E+00  0.00000000E+00  0.00000000E+00
  0.00000000E+00  0.00000000E+00  0.00000000E+00  0.00000000E+00  0.00000000E+00
  0.00000000E+00  0.00000000E+00  0.00000000E+00  0.00000000E+00  0.00000000E+00
  0.00000000E+00  0.00000000E+00  0.00000000E+00  0.00000000E+00  0.00000000E+00
  0.00000000E+00  0.00000000E+00  0.00000000E+00  0.00000000E+00  0.00000000E+00
  0.00000000E+00  0.00000000E+00  0.00000000E+00  0.00000000E+00  0.00000000E+00
  0.00000000E+00  0.00000000E+00  0.00000000E+00  0.00000000E+00  0.00000000E+00
  0.00000000E+00  0.00000000E+00  0.00000000E+00  0.00000000E+00  0.00000000E+00
  0.00000000E+00  0.00000000E+00  0.00000000E+00  0.00000000E+00  0.00000000E+00
  0.00000000E+00  0.00000000E+00  0.00000000E+00  0.00000000E+00  0.00000000E+00
  0.00000000E+00  0.00000000E+00  0.00000000E+00  0.00000000E+00  0.00000000E+00
  0.00000000E+00  0.00000000E+00  0.00000000E+00  0.00000000E+00  0.00000000E+00
  0.00000000E+00  0.00000000E+00  0.00000000E+00  0.00000000E+00  0.00000000E+00
  0.00000000E+00  0.00000000E+00  0.00000000E+00  0.00000000E+00  0.00000000E+00
  0.00000000E+00  0.00000000E+00  0.00000000E+00  0.00000000E+00  0.00000000E+00
  0.00000000E+00  0.00000000E+00  0.00000000E+00  0.00000000E+00  0.00000000E+00
  0.00000000E+00  0.00000000E+00  0.00000000E+00  0.00000000E+00  0.00000000E+00
  0.00000000E+00  0.00000000E+00  0.00000000E+00  0.00000000E+00  0.00000000E+00
  0.00000000E+00  0.00000000E+00  0.00000000E+00  0.00000000E+00  0.00000000E+00
  0.00000000E+00  0.00000000E+00  0.00000000E+00  0.00000000E+00  0.00000000E+00
  0.00000000E+00  0.00000000E+00  0.00000000E+00  0.00000000E+00  0.00000000E+00
  0.00000000E+00  0.00000000E+00  0.00000000E+00  0.00000000E+00  0.00000000E+00
  0.00000000E+00  0.00000000E+00  0.00000000E+00  0.00000000E+00  0.00000000E+00
  0.00000000E+00  0.00000000E+00  0.00000000E+00  0.00000000E+00  0.00000000E+00
  0.00000000E+00  0.00000000E+00  0.00000000E+00  0.00000000E+00  0.00000000E+00
  0.00000000E+00  0.00000000E+00  0.00000000E+00  0.00000000E+00  0.00000000E+00
  0.00000000E+00  0.00000000E+00  0.00000000E+00  0.00000000E+00  0.00000000E+00
  0.00000000E+00  0.00000000E+00  0.00000000E+00  0.00000000E+00  0.00000000E+00
  0.00000000E+00  0.00000000E+00  0.00000000E+00  0.00000000E+00  0.00000000E+00
  0.00000000E+00  0.00000000E+00  0.00000000E+00  0.00000000E+00  0.00000000E+00
  0.00000000E+00  0.00000000E+00  0.00000000E+00  0.00000000E+00  0.00000000E+00
  0.00000000E+00  0.00000000E+00  0.00000000E+00  0.00000000E+00  0.00000000E+00
  0.00000000E+00  0.00000000E+00  0.00000000E+00  0.00000000E+00  0.00000000E+00
  0.00000000E+00  0.00000000E+00  0.00000000E+00  0.00000000E+00  0.00000000E+00
Gaussian Version                           C   N=           2
ES64L-G16RevC.02        
