13
* (null), Energy   -1000.0000000
C     0.022845   -1.855529   -0.003217   -0.143796   -0.003230   -0.000002
C     0.007243   -1.151505    1.195153   -0.081241   -0.001759   -0.000044
C    -0.023604    0.236238    1.193650    0.036829    0.000848   -0.000015
C    -0.038941    0.941847   -0.013678    0.188726    0.004122   -0.000021
C    -0.023247    0.226713   -1.210295   -0.130883   -0.002877    0.000005
C     0.007468   -1.161586   -1.206883   -0.121770   -0.002705    0.000028
H     0.047020   -2.937078    0.008431    1.308936    0.029217    0.000003
H     0.018939   -1.672388    2.143117    0.664367    0.014878   -0.000091
H    -0.035296    0.770714   -2.149073    0.781169    0.017236   -0.000034
H     0.019430   -1.697078   -2.147493    1.065434    0.023675    0.000096
O    -0.068498    2.300204    0.027847   -0.041450   -0.000911    0.000032
H    -0.076923    2.649025   -0.870821    0.001224   -0.000180   -0.000081
Cl   -0.043025    1.106988    2.700129   -0.004517   -0.000103    0.000005
13
* Frequency(17)  755.4586
C     0.006504   -1.855896   -0.003218   -0.143796   -0.003230   -0.000002
C    -0.001990   -1.151705    1.195148   -0.081241   -0.001759   -0.000044
C    -0.019419    0.236335    1.193648    0.036829    0.000848   -0.000015
C    -0.017494    0.942316   -0.013681    0.188726    0.004122   -0.000021
C    -0.038121    0.226386   -1.210294   -0.130883   -0.002877    0.000005
C    -0.006370   -1.161893   -1.206880   -0.121770   -0.002705    0.000028
H     0.195774   -2.933757    0.008431    1.308936    0.029217    0.000003
H     0.094441   -1.670698    2.143106    0.664367    0.014878   -0.000091
H     0.053479    0.772673   -2.149077    0.781169    0.017236   -0.000034
H     0.140511   -1.694387   -2.147482    1.065434    0.023675    0.000096
O    -0.073209    2.300100    0.027851   -0.041450   -0.000911    0.000032
H    -0.076784    2.649005   -0.870830    0.001224   -0.000180   -0.000081
Cl   -0.043539    1.106976    2.700129   -0.004517   -0.000103    0.000005
13
* Frequency(17)  755.4586
C    -0.008067   -1.856223   -0.003218   -0.143796   -0.003230   -0.000002
C    -0.010222   -1.151883    1.195144   -0.081241   -0.001759   -0.000044
C    -0.015687    0.236421    1.193647    0.036829    0.000848   -0.000015
C     0.001630    0.942733   -0.013683    0.188726    0.004122   -0.000021
C    -0.051383    0.226094   -1.210294   -0.130883   -0.002877    0.000005
C    -0.018709   -1.162167   -1.206877   -0.121770   -0.002705    0.000028
H     0.328408   -2.930797    0.008431    1.308936    0.029217    0.000003
H     0.161761   -1.669190    2.143097    0.664367    0.014878   -0.000091
H     0.132635    0.774419   -2.149081    0.781169    0.017236   -0.000034
H     0.248471   -1.691988   -2.147473    1.065434    0.023675    0.000096
O    -0.077409    2.300008    0.027854   -0.041450   -0.000911    0.000032
H    -0.076660    2.648986   -0.870839    0.001224   -0.000180   -0.000081
Cl   -0.043996    1.106966    2.700130   -0.004517   -0.000103    0.000005
13
* Frequency(17)  755.4586
C    -0.019288   -1.856475   -0.003218   -0.143796   -0.003230   -0.000002
C    -0.016561   -1.152020    1.195140   -0.081241   -0.001759   -0.000044
C    -0.012813    0.236487    1.193646    0.036829    0.000848   -0.000015
C     0.016357    0.943055   -0.013684    0.188726    0.004122   -0.000021
C    -0.061596    0.225870   -1.210294   -0.130883   -0.002877    0.000005
C    -0.028211   -1.162378   -1.206875   -0.121770   -0.002705    0.000028
H     0.430549   -2.928517    0.008432    1.308936    0.029217    0.000003
H     0.213604   -1.668029    2.143090    0.664367    0.014878   -0.000091
H     0.193593    0.775764   -2.149083    0.781169    0.017236   -0.000034
H     0.331611   -1.690141   -2.147465    1.065434    0.023675    0.000096
O    -0.080644    2.299937    0.027856   -0.041450   -0.000911    0.000032
H    -0.076564    2.648972   -0.870845    0.001224   -0.000180   -0.000081
Cl   -0.044349    1.106958    2.700130   -0.004517   -0.000103    0.000005
13
* Frequency(17)  755.4586
C    -0.025943   -1.856625   -0.003218   -0.143796   -0.003230   -0.000002
C    -0.020321   -1.152102    1.195138   -0.081241   -0.001759   -0.000044
C    -0.011108    0.236526    1.193645    0.036829    0.000848   -0.000015
C     0.025091    0.943246   -0.013685    0.188726    0.004122   -0.000021
C    -0.067654    0.225737   -1.210293   -0.130883   -0.002877    0.000005
C    -0.033847   -1.162503   -1.206873   -0.121770   -0.002705    0.000028
H     0.491129   -2.927165    0.008432    1.308936    0.029217    0.000003
H     0.244352   -1.667340    2.143086    0.664367    0.014878   -0.000091
H     0.229747    0.776562   -2.149085    0.781169    0.017236   -0.000034
H     0.380921   -1.689045   -2.147461    1.065434    0.023675    0.000096
O    -0.082562    2.299894    0.027858   -0.041450   -0.000911    0.000032
H    -0.076508    2.648964   -0.870849    0.001224   -0.000180   -0.000081
Cl   -0.044558    1.106953    2.700131   -0.004517   -0.000103    0.000005
13
* Frequency(17)  755.4586
C    -0.027311   -1.856656   -0.003218   -0.143796   -0.003230   -0.000002
C    -0.021094   -1.152118    1.195138   -0.081241   -0.001759   -0.000044
C    -0.010758    0.236534    1.193645    0.036829    0.000848   -0.000015
C     0.026887    0.943285   -0.013686    0.188726    0.004122   -0.000021
C    -0.068899    0.225709   -1.210293   -0.130883   -0.002877    0.000005
C    -0.035006   -1.162529   -1.206873   -0.121770   -0.002705    0.000028
H     0.503583   -2.926887    0.008432    1.308936    0.029217    0.000003
H     0.250673   -1.667199    2.143085    0.664367    0.014878   -0.000091
H     0.237179    0.776726   -2.149085    0.781169    0.017236   -0.000034
H     0.391058   -1.688820   -2.147460    1.065434    0.023675    0.000096
O    -0.082956    2.299886    0.027858   -0.041450   -0.000911    0.000032
H    -0.076496    2.648962   -0.870850    0.001224   -0.000180   -0.000081
Cl   -0.044601    1.106952    2.700131   -0.004517   -0.000103    0.000005
13
* Frequency(17)  755.4586
C    -0.023244   -1.856564   -0.003218   -0.143796   -0.003230   -0.000002
C    -0.018796   -1.152069    1.195139   -0.081241   -0.001759   -0.000044
C    -0.011800    0.236510    1.193645    0.036829    0.000848   -0.000015
C     0.021549    0.943169   -0.013685    0.188726    0.004122   -0.000021
C    -0.065197    0.225791   -1.210293   -0.130883   -0.002877    0.000005
C    -0.031562   -1.162453   -1.206874   -0.121770   -0.002705    0.000028
H     0.466561   -2.927713    0.008432    1.308936    0.029217    0.000003
H     0.231882   -1.667620    2.143087    0.664367    0.014878   -0.000091
H     0.215084    0.776238   -2.149084    0.781169    0.017236   -0.000034
H     0.360924   -1.689490   -2.147462    1.065434    0.023675    0.000096
O    -0.081784    2.299912    0.027857   -0.041450   -0.000911    0.000032
H    -0.076531    2.648967   -0.870847    0.001224   -0.000180   -0.000081
Cl   -0.044473    1.106955    2.700130   -0.004517   -0.000103    0.000005
13
* Frequency(17)  755.4586
C    -0.014183   -1.856361   -0.003218   -0.143796   -0.003230   -0.000002
C    -0.013677   -1.151958    1.195142   -0.081241   -0.001759   -0.000044
C    -0.014121    0.236457    1.193646    0.036829    0.000848   -0.000015
C     0.009656    0.942909   -0.013684    0.188726    0.004122   -0.000021
C    -0.056949    0.225972   -1.210294   -0.130883   -0.002877    0.000005
C    -0.023888   -1.162282   -1.206876   -0.121770   -0.002705    0.000028
H     0.384076   -2.929554    0.008431    1.308936    0.029217    0.000003
H     0.190016   -1.668557    2.143093    0.664367    0.014878   -0.000091
H     0.165857    0.775152   -2.149082    0.781169    0.017236   -0.000034
H     0.293783   -1.690981   -2.147468    1.065434    0.023675    0.000096
O    -0.079172    2.299969    0.027855   -0.041450   -0.000911    0.000032
H    -0.076608    2.648979   -0.870842    0.001224   -0.000180   -0.000081
Cl   -0.044189    1.106961    2.700130   -0.004517   -0.000103    0.000005
13
* Frequency(17)  755.4586
C    -0.001108   -1.856067   -0.003218   -0.143796   -0.003230   -0.000002
C    -0.006290   -1.151798    1.195146   -0.081241   -0.001759   -0.000044
C    -0.017469    0.236380    1.193648    0.036829    0.000848   -0.000015
C    -0.007503    0.942534   -0.013682    0.188726    0.004122   -0.000021
C    -0.045049    0.226234   -1.210294   -0.130883   -0.002877    0.000005
C    -0.012816   -1.162036   -1.206878   -0.121770   -0.002705    0.000028
H     0.265065   -2.932211    0.008431    1.308936    0.029217    0.000003
H     0.129610   -1.669910    2.143101    0.664367    0.014878   -0.000091
H     0.094832    0.773585   -2.149079    0.781169    0.017236   -0.000034
H     0.196912   -1.693134   -2.147477    1.065434    0.023675    0.000096
O    -0.075403    2.300052    0.027852   -0.041450   -0.000911    0.000032
H    -0.076719    2.648995   -0.870835    0.001224   -0.000180   -0.000081
Cl   -0.043778    1.106971    2.700130   -0.004517   -0.000103    0.000005
13
* Frequency(17)  755.4586
C     0.014562   -1.855715   -0.003218   -0.143796   -0.003230   -0.000002
C     0.002563   -1.151606    1.195151   -0.081241   -0.001759   -0.000044
C    -0.021483    0.236287    1.193649    0.036829    0.000848   -0.000015
C    -0.028069    0.942085   -0.013679    0.188726    0.004122   -0.000021
C    -0.030786    0.226547   -1.210295   -0.130883   -0.002877    0.000005
C     0.000453   -1.161741   -1.206881   -0.121770   -0.002705    0.000028
H     0.122426   -2.935395    0.008431    1.308936    0.029217    0.000003
H     0.057212   -1.671531    2.143111    0.664367    0.014878   -0.000091
H     0.009705    0.771707   -2.149075    0.781169    0.017236   -0.000034
H     0.080808   -1.695714   -2.147488    1.065434    0.023675    0.000096
O    -0.070886    2.300151    0.027849   -0.041450   -0.000911    0.000032
H    -0.076852    2.649015   -0.870826    0.001224   -0.000180   -0.000081
Cl   -0.043286    1.106982    2.700129   -0.004517   -0.000103    0.000005
13
* Frequency(17)  755.4586
C     0.031129   -1.855343   -0.003217   -0.143796   -0.003230   -0.000002
C     0.011923   -1.151404    1.195156   -0.081241   -0.001759   -0.000044
C    -0.025726    0.236190    1.193651    0.036829    0.000848   -0.000015
C    -0.049813    0.941610   -0.013677    0.188726    0.004122   -0.000021
C    -0.015707    0.226879   -1.210295   -0.130883   -0.002877    0.000005
C     0.014483   -1.161430   -1.206884   -0.121770   -0.002705    0.000028
H    -0.028385   -2.938761    0.008431    1.308936    0.029217    0.000003
H    -0.019334   -1.673245    2.143122    0.664367    0.014878   -0.000091
H    -0.080298    0.769721   -2.149071    0.781169    0.017236   -0.000034
H    -0.041947   -1.698442   -2.147499    1.065434    0.023675    0.000096
O    -0.066110    2.300256    0.027845   -0.041450   -0.000911    0.000032
H    -0.076994    2.649035   -0.870816    0.001224   -0.000180   -0.000081
Cl   -0.042765    1.106994    2.700128   -0.004517   -0.000103    0.000005
13
* Frequency(17)  755.4586
C     0.046799   -1.854991   -0.003217   -0.143796   -0.003230   -0.000002
C     0.020776   -1.151212    1.195160   -0.081241   -0.001759   -0.000044
C    -0.029739    0.236097    1.193653    0.036829    0.000848   -0.000015
C    -0.070380    0.941161   -0.013675    0.188726    0.004122   -0.000021
C    -0.001444    0.227192   -1.210296   -0.130883   -0.002877    0.000005
C     0.027753   -1.161135   -1.206888   -0.121770   -0.002705    0.000028
H    -0.171024   -2.941945    0.008430    1.308936    0.029217    0.000003
H    -0.091732   -1.674867    2.143132    0.664367    0.014878   -0.000091
H    -0.165425    0.767843   -2.149068    0.781169    0.017236   -0.000034
H    -0.158052   -1.701021   -2.147509    1.065434    0.023675    0.000096
O    -0.061594    2.300356    0.027842   -0.041450   -0.000911    0.000032
H    -0.077127    2.649055   -0.870808    0.001224   -0.000180   -0.000081
Cl   -0.042273    1.107005    2.700128   -0.004517   -0.000103    0.000005
13
* Frequency(17)  755.4586
C     0.059873   -1.854697   -0.003217   -0.143796   -0.003230   -0.000002
C     0.028163   -1.151052    1.195164   -0.081241   -0.001759   -0.000044
C    -0.033088    0.236020    1.193654    0.036829    0.000848   -0.000015
C    -0.087539    0.940786   -0.013673    0.188726    0.004122   -0.000021
C     0.010456    0.227454   -1.210296   -0.130883   -0.002877    0.000005
C     0.038824   -1.160889   -1.206890   -0.121770   -0.002705    0.000028
H    -0.290035   -2.944601    0.008430    1.308936    0.029217    0.000003
H    -0.152138   -1.676220    2.143140    0.664367    0.014878   -0.000091
H    -0.236450    0.766276   -2.149065    0.781169    0.017236   -0.000034
H    -0.254923   -1.703174   -2.147518    1.065434    0.023675    0.000096
O    -0.057825    2.300438    0.027839   -0.041450   -0.000911    0.000032
H    -0.077238    2.649071   -0.870800    0.001224   -0.000180   -0.000081
Cl   -0.041862    1.107014    2.700127   -0.004517   -0.000103    0.000005
13
* Frequency(17)  755.4586
C     0.068935   -1.854493   -0.003217   -0.143796   -0.003230   -0.000002
C     0.033282   -1.150941    1.195167   -0.081241   -0.001759   -0.000044
C    -0.035409    0.235967    1.193655    0.036829    0.000848   -0.000015
C    -0.099432    0.940526   -0.013671    0.188726    0.004122   -0.000021
C     0.018704    0.227635   -1.210297   -0.130883   -0.002877    0.000005
C     0.046498   -1.160718   -1.206892   -0.121770   -0.002705    0.000028
H    -0.372521   -2.946442    0.008430    1.308936    0.029217    0.000003
H    -0.194004   -1.677157    2.143146    0.664367    0.014878   -0.000091
H    -0.285677    0.765190   -2.149063    0.781169    0.017236   -0.000034
H    -0.322063   -1.704666   -2.147524    1.065434    0.023675    0.000096
O    -0.055213    2.300496    0.027837   -0.041450   -0.000911    0.000032
H    -0.077315    2.649083   -0.870795    0.001224   -0.000180   -0.000081
Cl   -0.041577    1.107021    2.700127   -0.004517   -0.000103    0.000005
13
* Frequency(17)  755.4586
C     0.073002   -1.854402   -0.003217   -0.143796   -0.003230   -0.000002
C     0.035580   -1.150891    1.195168   -0.081241   -0.001759   -0.000044
C    -0.036450    0.235943    1.193655    0.036829    0.000848   -0.000015
C    -0.104770    0.940409   -0.013671    0.188726    0.004122   -0.000021
C     0.022406    0.227716   -1.210297   -0.130883   -0.002877    0.000005
C     0.049942   -1.160642   -1.206893   -0.121770   -0.002705    0.000028
H    -0.409543   -2.947269    0.008430    1.308936    0.029217    0.000003
H    -0.212795   -1.677578    2.143148    0.664367    0.014878   -0.000091
H    -0.307772    0.764702   -2.149062    0.781169    0.017236   -0.000034
H    -0.352198   -1.705336   -2.147527    1.065434    0.023675    0.000096
O    -0.054040    2.300522    0.027836   -0.041450   -0.000911    0.000032
H    -0.077350    2.649088   -0.870793    0.001224   -0.000180   -0.000081
Cl   -0.041450    1.107024    2.700127   -0.004517   -0.000103    0.000005
13
* Frequency(17)  755.4586
C     0.071634   -1.854433   -0.003217   -0.143796   -0.003230   -0.000002
C     0.034807   -1.150908    1.195168   -0.081241   -0.001759   -0.000044
C    -0.036100    0.235951    1.193655    0.036829    0.000848   -0.000015
C    -0.102974    0.940449   -0.013671    0.188726    0.004122   -0.000021
C     0.021161    0.227689   -1.210297   -0.130883   -0.002877    0.000005
C     0.048783   -1.160668   -1.206892   -0.121770   -0.002705    0.000028
H    -0.397089   -2.946991    0.008430    1.308936    0.029217    0.000003
H    -0.206474   -1.677436    2.143148    0.664367    0.014878   -0.000091
H    -0.300339    0.764866   -2.149062    0.781169    0.017236   -0.000034
H    -0.342061   -1.705110   -2.147526    1.065434    0.023675    0.000096
O    -0.054435    2.300513    0.027836   -0.041450   -0.000911    0.000032
H    -0.077338    2.649086   -0.870794    0.001224   -0.000180   -0.000081
Cl   -0.041493    1.107023    2.700127   -0.004517   -0.000103    0.000005
13
* Frequency(17)  755.4586
C     0.064979   -1.854582   -0.003217   -0.143796   -0.003230   -0.000002
C     0.031047   -1.150990    1.195166   -0.081241   -0.001759   -0.000044
C    -0.034395    0.235990    1.193654    0.036829    0.000848   -0.000015
C    -0.094240    0.940639   -0.013672    0.188726    0.004122   -0.000021
C     0.015103    0.227556   -1.210296   -0.130883   -0.002877    0.000005
C     0.043148   -1.160793   -1.206891   -0.121770   -0.002705    0.000028
H    -0.336509   -2.945639    0.008430    1.308936    0.029217    0.000003
H    -0.175726   -1.676748    2.143143    0.664367    0.014878   -0.000091
H    -0.264185    0.765664   -2.149064    0.781169    0.017236   -0.000034
H    -0.292751   -1.704015   -2.147521    1.065434    0.023675    0.000096
O    -0.056353    2.300471    0.027838   -0.041450   -0.000911    0.000032
H    -0.077282    2.649078   -0.870797    0.001224   -0.000180   -0.000081
Cl   -0.041702    1.107018    2.700127   -0.004517   -0.000103    0.000005
13
* Frequency(17)  755.4586
C     0.053758   -1.854834   -0.003217   -0.143796   -0.003230   -0.000002
C     0.024708   -1.151127    1.195163   -0.081241   -0.001759   -0.000044
C    -0.031522    0.236056    1.193653    0.036829    0.000848   -0.000015
C    -0.079513    0.940961   -0.013674    0.188726    0.004122   -0.000021
C     0.004890    0.227331   -1.210296   -0.130883   -0.002877    0.000005
C     0.033645   -1.161004   -1.206889   -0.121770   -0.002705    0.000028
H    -0.234368   -2.943359    0.008430    1.308936    0.029217    0.000003
H    -0.123883   -1.675587    2.143136    0.664367    0.014878   -0.000091
H    -0.203228    0.767009   -2.149066    0.781169    0.017236   -0.000034
H    -0.209611   -1.702167   -2.147514    1.065434    0.023675    0.000096
O    -0.059588    2.300400    0.027840   -0.041450   -0.000911    0.000032
H    -0.077186    2.649064   -0.870804    0.001224   -0.000180   -0.000081
Cl   -0.042054    1.107010    2.700128   -0.004517   -0.000103    0.000005
13
* Frequency(17)  755.4586
C     0.039187   -1.855162   -0.003217   -0.143796   -0.003230   -0.000002
C     0.016476   -1.151305    1.195158   -0.081241   -0.001759   -0.000044
C    -0.027790    0.236142    1.193652    0.036829    0.000848   -0.000015
C    -0.060389    0.941379   -0.013676    0.188726    0.004122   -0.000021
C    -0.008372    0.227040   -1.210296   -0.130883   -0.002877    0.000005
C     0.021307   -1.161278   -1.206886   -0.121770   -0.002705    0.000028
H    -0.101734   -2.940398    0.008430    1.308936    0.029217    0.000003
H    -0.056563   -1.674079    2.143127    0.664367    0.014878   -0.000091
H    -0.124072    0.768755   -2.149070    0.781169    0.017236   -0.000034
H    -0.101651   -1.699768   -2.147504    1.065434    0.023675    0.000096
O    -0.063788    2.300307    0.027843   -0.041450   -0.000911    0.000032
H    -0.077062    2.649045   -0.870812    0.001224   -0.000180   -0.000081
Cl   -0.042512    1.106999    2.700128   -0.004517   -0.000103    0.000005
13
* Frequency(17)  755.4586
C     0.022845   -1.855529   -0.003217   -0.143796   -0.003230   -0.000002
C     0.007243   -1.151505    1.195153   -0.081241   -0.001759   -0.000044
C    -0.023604    0.236238    1.193650    0.036829    0.000848   -0.000015
C    -0.038941    0.941847   -0.013678    0.188726    0.004122   -0.000021
C    -0.023247    0.226713   -1.210295   -0.130883   -0.002877    0.000005
C     0.007468   -1.161586   -1.206883   -0.121770   -0.002705    0.000028
H     0.047020   -2.937078    0.008431    1.308936    0.029217    0.000003
H     0.018939   -1.672388    2.143117    0.664367    0.014878   -0.000091
H    -0.035296    0.770714   -2.149073    0.781169    0.017236   -0.000034
H     0.019430   -1.697078   -2.147493    1.065434    0.023675    0.000096
O    -0.068498    2.300204    0.027847   -0.041450   -0.000911    0.000032
H    -0.076923    2.649025   -0.870821    0.001224   -0.000180   -0.000081
Cl   -0.043025    1.106988    2.700129   -0.004517   -0.000103    0.000005
