13
Coordinates from ORCA-job ex1_optfreq_trans_B3LYP_gas
  C   0.02284544341964     -1.85552888890042     -0.00321748051654
  C   0.00724301600199     -1.15150486739708      1.19515312845470
  C   -0.02360417814721      0.23623837041398      1.19365014749102
  C   -0.03894135252427      0.94184729125571     -0.01367827037757
  C   -0.02324651703848      0.22671282141914     -1.21029500508006
  C   0.00746811838122     -1.16158552696380     -1.20688281322553
  H   0.04702017771951     -2.93707780388359      0.00843070338544
  H   0.01893906271551     -1.67238834051065      2.14311658917175
  H   -0.03529630740176      0.77071399651147     -2.14907339260038
  H   0.01943012491642     -1.69707770160621     -2.14749325236990
  O   -0.06849835070461      2.30020369991656      0.02784691445847
  H   -0.07692298888290      2.64902506268964     -0.87082113516645
  Cl  -0.04302533845505      1.10698776705527      2.70012873637505
