13
* (null), Energy   -1000.0000000
C     0.022845   -1.855529   -0.003217   -0.001917    0.088334    0.027687
C     0.007243   -1.151505    1.195153   -0.008055    0.351395   -0.107861
C    -0.023604    0.236238    1.193650   -0.004930    0.254620   -0.210546
C    -0.038941    0.941847   -0.013678    0.002643   -0.097727   -0.438012
C    -0.023247    0.226713   -1.210295    0.005163   -0.254600   -0.524911
C     0.007468   -1.161586   -1.206883    0.007826   -0.341015   -0.216182
H     0.047020   -2.937078    0.008431   -0.002302    0.091888    0.421236
H     0.018939   -1.672388    2.143117   -0.011162    0.447433   -0.059019
H    -0.035296    0.770714   -2.149073    0.007197   -0.411267   -0.612363
H     0.019430   -1.697078   -2.147493    0.014796   -0.666224   -0.035496
O    -0.068498    2.300204    0.027847    0.003108   -0.153885    0.489259
H    -0.076923    2.649025   -0.870821   -0.015577    0.775172    0.852492
Cl   -0.043025    1.106988    2.700129   -0.001449    0.062364    0.261050
13
* Frequency(12)  493.9285
C     0.022628   -1.845490   -0.000071   -0.001917    0.088334    0.027687
C     0.006328   -1.111571    1.182895   -0.008055    0.351395   -0.107861
C    -0.024164    0.265175    1.169723   -0.004930    0.254620   -0.210546
C    -0.038641    0.930741   -0.063456    0.002643   -0.097727   -0.438012
C    -0.022660    0.197779   -1.269948    0.005163   -0.254600   -0.524911
C     0.008358   -1.200340   -1.231451    0.007826   -0.341015   -0.216182
H     0.046759   -2.926635    0.056302   -0.002302    0.091888    0.421236
H     0.017671   -1.621540    2.136409   -0.011162    0.447433   -0.059019
H    -0.034478    0.723976   -2.218665    0.007197   -0.411267   -0.612363
H     0.021112   -1.772791   -2.151527    0.014796   -0.666224   -0.035496
O    -0.068145    2.282715    0.083449    0.003108   -0.153885    0.489259
H    -0.078693    2.737119   -0.773940   -0.015577    0.775172    0.852492
Cl   -0.043190    1.114075    2.729796   -0.001449    0.062364    0.261050
13
* Frequency(12)  493.9285
C     0.022433   -1.836539    0.002735   -0.001917    0.088334    0.027687
C     0.005511   -1.075964    1.171966   -0.008055    0.351395   -0.107861
C    -0.024664    0.290975    1.148388   -0.004930    0.254620   -0.210546
C    -0.038373    0.920838   -0.107840    0.002643   -0.097727   -0.438012
C    -0.022137    0.171980   -1.323137    0.005163   -0.254600   -0.524911
C     0.009151   -1.234895   -1.253356    0.007826   -0.341015   -0.216182
H     0.046525   -2.917324    0.098986   -0.002302    0.091888    0.421236
H     0.016539   -1.576202    2.130429   -0.011162    0.447433   -0.059019
H    -0.033749    0.682302   -2.280716    0.007197   -0.411267   -0.612363
H     0.022611   -1.840299   -2.155124    0.014796   -0.666224   -0.035496
O    -0.067830    2.267122    0.133025    0.003108   -0.153885    0.489259
H    -0.080272    2.815667   -0.687557   -0.015577    0.775172    0.852492
Cl   -0.043337    1.120394    2.756248   -0.001449    0.062364    0.261050
13
* Frequency(12)  493.9285
C     0.022284   -1.829646    0.004895   -0.001917    0.088334    0.027687
C     0.004883   -1.048543    1.163549   -0.008055    0.351395   -0.107861
C    -0.025049    0.310844    1.131958   -0.004930    0.254620   -0.210546
C    -0.038167    0.913212   -0.142019    0.002643   -0.097727   -0.438012
C    -0.021734    0.152113   -1.364098    0.005163   -0.254600   -0.524911
C     0.009761   -1.261506   -1.270226    0.007826   -0.341015   -0.216182
H     0.046346   -2.910154    0.131856   -0.002302    0.091888    0.421236
H     0.015668   -1.541287    2.125824   -0.011162    0.447433   -0.059019
H    -0.033187    0.650209   -2.328501    0.007197   -0.411267   -0.612363
H     0.023765   -1.892287   -2.157894    0.014796   -0.666224   -0.035496
O    -0.067588    2.255114    0.171204    0.003108   -0.153885    0.489259
H    -0.081487    2.876157   -0.621034   -0.015577    0.775172    0.852492
Cl   -0.043450    1.125261    2.776619   -0.001449    0.062364    0.261050
13
* Frequency(12)  493.9285
C     0.022195   -1.825558    0.006177   -0.001917    0.088334    0.027687
C     0.004510   -1.032280    1.158557   -0.008055    0.351395   -0.107861
C    -0.025277    0.322629    1.122214   -0.004930    0.254620   -0.210546
C    -0.038045    0.908689   -0.162291    0.002643   -0.097727   -0.438012
C    -0.021495    0.140330   -1.388392    0.005163   -0.254600   -0.524911
C     0.010123   -1.277288   -1.280231    0.007826   -0.341015   -0.216182
H     0.046239   -2.905901    0.151352   -0.002302    0.091888    0.421236
H     0.015152   -1.520579    2.123092   -0.011162    0.447433   -0.059019
H    -0.032854    0.631175   -2.356842    0.007197   -0.411267   -0.612363
H     0.024450   -1.923121   -2.159537    0.014796   -0.666224   -0.035496
O    -0.067444    2.247992    0.193848    0.003108   -0.153885    0.489259
H    -0.082208    2.912033   -0.581579   -0.015577    0.775172    0.852492
Cl   -0.043517    1.128147    2.788700   -0.001449    0.062364    0.261050
13
* Frequency(12)  493.9285
C     0.022177   -1.824718    0.006440   -0.001917    0.088334    0.027687
C     0.004433   -1.028937    1.157531   -0.008055    0.351395   -0.107861
C    -0.025324    0.325051    1.120211   -0.004930    0.254620   -0.210546
C    -0.038020    0.907760   -0.166459    0.002643   -0.097727   -0.438012
C    -0.021446    0.137907   -1.393386    0.005163   -0.254600   -0.524911
C     0.010198   -1.280533   -1.282288    0.007826   -0.341015   -0.216182
H     0.046217   -2.905027    0.155360   -0.002302    0.091888    0.421236
H     0.015046   -1.516322    2.122531   -0.011162    0.447433   -0.059019
H    -0.032786    0.627262   -2.362668    0.007197   -0.411267   -0.612363
H     0.024591   -1.929460   -2.159874    0.014796   -0.666224   -0.035496
O    -0.067414    2.246528    0.198503    0.003108   -0.153885    0.489259
H    -0.082356    2.919409   -0.573468   -0.015577    0.775172    0.852492
Cl   -0.043531    1.128741    2.791184   -0.001449    0.062364    0.261050
13
* Frequency(12)  493.9285
C     0.022231   -1.827216    0.005657   -0.001917    0.088334    0.027687
C     0.004661   -1.038875    1.160581   -0.008055    0.351395   -0.107861
C    -0.025184    0.317849    1.126166   -0.004930    0.254620   -0.210546
C    -0.038094    0.910524   -0.154070    0.002643   -0.097727   -0.438012
C    -0.021592    0.145108   -1.378540    0.005163   -0.254600   -0.524911
C     0.009977   -1.270888   -1.276174    0.007826   -0.341015   -0.216182
H     0.046282   -2.907626    0.143445   -0.002302    0.091888    0.421236
H     0.015361   -1.528977    2.124200   -0.011162    0.447433   -0.059019
H    -0.032989    0.638895   -2.345348    0.007197   -0.411267   -0.612363
H     0.024172   -1.910616   -2.158870    0.014796   -0.666224   -0.035496
O    -0.067502    2.250880    0.184665    0.003108   -0.153885    0.489259
H    -0.081916    2.897484   -0.597580   -0.015577    0.775172    0.852492
Cl   -0.043490    1.126977    2.783801   -0.001449    0.062364    0.261050
13
* Frequency(12)  493.9285
C     0.022352   -1.832783    0.003912   -0.001917    0.088334    0.027687
C     0.005169   -1.061019    1.167379   -0.008055    0.351395   -0.107861
C    -0.024874    0.301804    1.139434   -0.004930    0.254620   -0.210546
C    -0.038261    0.916682   -0.126468    0.002643   -0.097727   -0.438012
C    -0.021917    0.161153   -1.345461    0.005163   -0.254600   -0.524911
C     0.009483   -1.249398   -1.262550    0.007826   -0.341015   -0.216182
H     0.046427   -2.913416    0.116900   -0.002302    0.091888    0.421236
H     0.016065   -1.557173    2.127919   -0.011162    0.447433   -0.059019
H    -0.033443    0.664811   -2.306759    0.007197   -0.411267   -0.612363
H     0.023240   -1.868633   -2.156633    0.014796   -0.666224   -0.035496
O    -0.067698    2.260578    0.153833    0.003108   -0.153885    0.489259
H    -0.080934    2.848635   -0.651302   -0.015577    0.775172    0.852492
Cl   -0.043399    1.123047    2.767350   -0.001449    0.062364    0.261050
13
* Frequency(12)  493.9285
C     0.022526   -1.840814    0.001395   -0.001917    0.088334    0.027687
C     0.005901   -1.092969    1.177185   -0.008055    0.351395   -0.107861
C    -0.024425    0.278653    1.158577   -0.004930    0.254620   -0.210546
C    -0.038501    0.925568   -0.086643    0.002643   -0.097727   -0.438012
C    -0.022386    0.184301   -1.297735    0.005163   -0.254600   -0.524911
C     0.008772   -1.218392   -1.242895    0.007826   -0.341015   -0.216182
H     0.046637   -2.921771    0.078601   -0.002302    0.091888    0.421236
H     0.017080   -1.597854    2.133285   -0.011162    0.447433   -0.059019
H    -0.034097    0.702205   -2.251082    0.007197   -0.411267   -0.612363
H     0.021895   -1.808058   -2.153406    0.014796   -0.666224   -0.035496
O    -0.067981    2.274569    0.109349    0.003108   -0.153885    0.489259
H    -0.079518    2.778154   -0.728812   -0.015577    0.775172    0.852492
Cl   -0.043267    1.117376    2.743615   -0.001449    0.062364    0.261050
13
* Frequency(12)  493.9285
C     0.022735   -1.850440   -0.001622   -0.001917    0.088334    0.027687
C     0.006779   -1.131262    1.188939   -0.008055    0.351395   -0.107861
C    -0.023888    0.250907    1.181521   -0.004930    0.254620   -0.210546
C    -0.038789    0.936217   -0.038911    0.002643   -0.097727   -0.438012
C    -0.022949    0.212046   -1.240534    0.005163   -0.254600   -0.524911
C     0.007919   -1.181231   -1.219337    0.007826   -0.341015   -0.216182
H     0.046888   -2.931784    0.032697   -0.002302    0.091888    0.421236
H     0.018296   -1.646613    2.139717   -0.011162    0.447433   -0.059019
H    -0.034882    0.747022   -2.184350    0.007197   -0.411267   -0.612363
H     0.020282   -1.735458   -2.149538    0.014796   -0.666224   -0.035496
O    -0.068319    2.291339    0.056032    0.003108   -0.153885    0.489259
H    -0.077820    2.693681   -0.821711   -0.015577    0.775172    0.852492
Cl   -0.043109    1.110580    2.715167   -0.001449    0.062364    0.261050
13
* Frequency(12)  493.9285
C     0.022956   -1.860618   -0.004812   -0.001917    0.088334    0.027687
C     0.007707   -1.171748    1.201367   -0.008055    0.351395   -0.107861
C    -0.023320    0.221570    1.205779   -0.004930    0.254620   -0.210546
C    -0.039094    0.947477    0.011555    0.002643   -0.097727   -0.438012
C    -0.023544    0.241380   -1.180056    0.005163   -0.254600   -0.524911
C     0.007017   -1.141940   -1.194429    0.007826   -0.341015   -0.216182
H     0.047153   -2.942371   -0.015836   -0.002302    0.091888    0.421236
H     0.019582   -1.698164    2.146517   -0.011162    0.447433   -0.059019
H    -0.035711    0.794406   -2.113796    0.007197   -0.411267   -0.612363
H     0.018578   -1.658698   -2.145448    0.014796   -0.666224   -0.035496
O    -0.068677    2.309069   -0.000338    0.003108   -0.153885    0.489259
H    -0.076026    2.604369   -0.919932   -0.015577    0.775172    0.852492
Cl   -0.042942    1.103395    2.685090   -0.001449    0.062364    0.261050
13
* Frequency(12)  493.9285
C     0.023165   -1.870244   -0.007830   -0.001917    0.088334    0.027687
C     0.008585   -1.210041    1.213121   -0.008055    0.351395   -0.107861
C    -0.022783    0.193823    1.228723   -0.004930    0.254620   -0.210546
C    -0.039382    0.958127    0.059286    0.002643   -0.097727   -0.438012
C    -0.024107    0.269124   -1.122855    0.005163   -0.254600   -0.524911
C     0.006164   -1.104779   -1.170871    0.007826   -0.341015   -0.216182
H     0.047404   -2.952385   -0.061739   -0.002302    0.091888    0.421236
H     0.020799   -1.746922    2.152948   -0.011162    0.447433   -0.059019
H    -0.036495    0.839223   -2.047065    0.007197   -0.411267   -0.612363
H     0.016965   -1.586097   -2.141580    0.014796   -0.666224   -0.035496
O    -0.069016    2.325838   -0.053655    0.003108   -0.153885    0.489259
H    -0.074328    2.519896   -1.012831   -0.015577    0.775172    0.852492
Cl   -0.042784    1.096599    2.656643   -0.001449    0.062364    0.261050
13
* Frequency(12)  493.9285
C     0.023339   -1.878275   -0.010347   -0.001917    0.088334    0.027687
C     0.009317   -1.241990    1.222928   -0.008055    0.351395   -0.107861
C    -0.022335    0.170673    1.247867   -0.004930    0.254620   -0.210546
C    -0.039622    0.967012    0.099111    0.002643   -0.097727   -0.438012
C    -0.024576    0.292273   -1.075129    0.005163   -0.254600   -0.524911
C     0.005453   -1.073773   -1.151215    0.007826   -0.341015   -0.216182
H     0.047613   -2.960739   -0.100039   -0.002302    0.091888    0.421236
H     0.021813   -1.787604    2.158314   -0.011162    0.447433   -0.059019
H    -0.037150    0.876617   -1.991388    0.007197   -0.411267   -0.612363
H     0.015620   -1.525523   -2.138353    0.014796   -0.666224   -0.035496
O    -0.069299    2.339830   -0.098139    0.003108   -0.153885    0.489259
H    -0.072912    2.449416   -1.090341   -0.015577    0.775172    0.852492
Cl   -0.042652    1.090929    2.632907   -0.001449    0.062364    0.261050
13
* Frequency(12)  493.9285
C     0.023460   -1.883842   -0.012092   -0.001917    0.088334    0.027687
C     0.009825   -1.264134    1.229725   -0.008055    0.351395   -0.107861
C    -0.022024    0.154627    1.261135   -0.004930    0.254620   -0.210546
C    -0.039788    0.973171    0.126713    0.002643   -0.097727   -0.438012
C    -0.024901    0.308317   -1.042050    0.005163   -0.254600   -0.524911
C     0.004960   -1.052283   -1.137592    0.007826   -0.341015   -0.216182
H     0.047758   -2.966530   -0.126584   -0.002302    0.091888    0.421236
H     0.022517   -1.815800    2.162033   -0.011162    0.447433   -0.059019
H    -0.037603    0.902533   -1.952798    0.007197   -0.411267   -0.612363
H     0.014688   -1.483539   -2.136116    0.014796   -0.666224   -0.035496
O    -0.069494    2.349527   -0.128971    0.003108   -0.153885    0.489259
H    -0.071930    2.400566   -1.144062   -0.015577    0.775172    0.852492
Cl   -0.042561    1.086999    2.616457   -0.001449    0.062364    0.261050
13
* Frequency(12)  493.9285
C     0.023514   -1.886340   -0.012875   -0.001917    0.088334    0.027687
C     0.010053   -1.274073    1.232776   -0.008055    0.351395   -0.107861
C    -0.021885    0.147426    1.267090   -0.004930    0.254620   -0.210546
C    -0.039863    0.975935    0.139102    0.002643   -0.097727   -0.438012
C    -0.025048    0.315518   -1.027204    0.005163   -0.254600   -0.524911
C     0.004738   -1.042638   -1.131478    0.007826   -0.341015   -0.216182
H     0.047823   -2.969129   -0.138498   -0.002302    0.091888    0.421236
H     0.022833   -1.828455    2.163703   -0.011162    0.447433   -0.059019
H    -0.037807    0.914166   -1.935478    0.007197   -0.411267   -0.612363
H     0.014269   -1.464696   -2.135112    0.014796   -0.666224   -0.035496
O    -0.069582    2.353879   -0.142809    0.003108   -0.153885    0.489259
H    -0.071490    2.378641   -1.168174   -0.015577    0.775172    0.852492
Cl   -0.042520    1.085235    2.609073   -0.001449    0.062364    0.261050
13
* Frequency(12)  493.9285
C     0.023496   -1.885500   -0.012612   -0.001917    0.088334    0.027687
C     0.009976   -1.270730    1.231749   -0.008055    0.351395   -0.107861
C    -0.021931    0.149848    1.265086   -0.004930    0.254620   -0.210546
C    -0.039838    0.975005    0.134935    0.002643   -0.097727   -0.438012
C    -0.024998    0.313096   -1.032198    0.005163   -0.254600   -0.524911
C     0.004813   -1.045883   -1.133534    0.007826   -0.341015   -0.216182
H     0.047801   -2.968254   -0.134490   -0.002302    0.091888    0.421236
H     0.022726   -1.824198    2.163141   -0.011162    0.447433   -0.059019
H    -0.037738    0.910253   -1.941305    0.007197   -0.411267   -0.612363
H     0.014410   -1.471034   -2.135450    0.014796   -0.666224   -0.035496
O    -0.069553    2.352415   -0.138154    0.003108   -0.153885    0.489259
H    -0.071638    2.386017   -1.160063   -0.015577    0.775172    0.852492
Cl   -0.042534    1.085828    2.611557   -0.001449    0.062364    0.261050
13
* Frequency(12)  493.9285
C     0.023407   -1.881411   -0.011330   -0.001917    0.088334    0.027687
C     0.009603   -1.254467    1.226757   -0.008055    0.351395   -0.107861
C    -0.022160    0.161632    1.255342   -0.004930    0.254620   -0.210546
C    -0.039716    0.970482    0.114663    0.002643   -0.097727   -0.438012
C    -0.024759    0.301313   -1.056492    0.005163   -0.254600   -0.524911
C     0.005175   -1.061665   -1.143540    0.007826   -0.341015   -0.216182
H     0.047695   -2.964002   -0.114995   -0.002302    0.091888    0.421236
H     0.022210   -1.803490    2.160410   -0.011162    0.447433   -0.059019
H    -0.037405    0.891219   -1.969646    0.007197   -0.411267   -0.612363
H     0.015095   -1.501869   -2.137093    0.014796   -0.666224   -0.035496
O    -0.069409    2.345293   -0.115510    0.003108   -0.153885    0.489259
H    -0.072359    2.421893   -1.120608   -0.015577    0.775172    0.852492
Cl   -0.042601    1.088715    2.623639   -0.001449    0.062364    0.261050
13
* Frequency(12)  493.9285
C     0.023258   -1.874518   -0.009170   -0.001917    0.088334    0.027687
C     0.008975   -1.227046    1.218340   -0.008055    0.351395   -0.107861
C    -0.022544    0.181501    1.238912   -0.004930    0.254620   -0.210546
C    -0.039509    0.962856    0.080483    0.002643   -0.097727   -0.438012
C    -0.024356    0.281445   -1.097453    0.005163   -0.254600   -0.524911
C     0.005786   -1.088276   -1.160409    0.007826   -0.341015   -0.216182
H     0.047515   -2.956831   -0.082124   -0.002302    0.091888    0.421236
H     0.021339   -1.768575    2.155804   -0.011162    0.447433   -0.059019
H    -0.036844    0.859126   -2.017431    0.007197   -0.411267   -0.612363
H     0.016249   -1.553857   -2.139863    0.014796   -0.666224   -0.035496
O    -0.069166    2.333285   -0.077331    0.003108   -0.153885    0.489259
H    -0.073574    2.482383   -1.054085   -0.015577    0.775172    0.852492
Cl   -0.042714    1.093581    2.644010   -0.001449    0.062364    0.261050
13
* Frequency(12)  493.9285
C     0.023063   -1.865568   -0.006364   -0.001917    0.088334    0.027687
C     0.008158   -1.191439    1.207411   -0.008055    0.351395   -0.107861
C    -0.023044    0.207302    1.217578   -0.004930    0.254620   -0.210546
C    -0.039242    0.952953    0.036099    0.002643   -0.097727   -0.438012
C    -0.023833    0.255647   -1.150642    0.005163   -0.254600   -0.524911
C     0.006579   -1.122831   -1.182315    0.007826   -0.341015   -0.216182
H     0.047282   -2.947520   -0.039441   -0.002302    0.091888    0.421236
H     0.020208   -1.723237    2.149824   -0.011162    0.447433   -0.059019
H    -0.036114    0.817452   -2.079482    0.007197   -0.411267   -0.612363
H     0.017749   -1.621365   -2.143459    0.014796   -0.666224   -0.035496
O    -0.068852    2.317692   -0.027755    0.003108   -0.153885    0.489259
H    -0.075153    2.560931   -0.967702   -0.015577    0.775172    0.852492
Cl   -0.042861    1.099900    2.670462   -0.001449    0.062364    0.261050
13
* Frequency(12)  493.9285
C     0.022845   -1.855529   -0.003217   -0.001917    0.088334    0.027687
C     0.007243   -1.151505    1.195153   -0.008055    0.351395   -0.107861
C    -0.023604    0.236238    1.193650   -0.004930    0.254620   -0.210546
C    -0.038941    0.941847   -0.013678    0.002643   -0.097727   -0.438012
C    -0.023247    0.226713   -1.210295    0.005163   -0.254600   -0.524911
C     0.007468   -1.161586   -1.206883    0.007826   -0.341015   -0.216182
H     0.047020   -2.937078    0.008431   -0.002302    0.091888    0.421236
H     0.018939   -1.672388    2.143117   -0.011162    0.447433   -0.059019
H    -0.035296    0.770714   -2.149073    0.007197   -0.411267   -0.612363
H     0.019430   -1.697078   -2.147493    0.014796   -0.666224   -0.035496
O    -0.068498    2.300204    0.027847    0.003108   -0.153885    0.489259
H    -0.076923    2.649025   -0.870821   -0.015577    0.775172    0.852492
Cl   -0.043025    1.106988    2.700129   -0.001449    0.062364    0.261050
