PYTHONPATH: Undefined variable.
 Entering Gaussian System, Link 0=/app1/ia32-64/Gaussian/Rev-C.02/g16/g16
 Initial command:
 /app1/ia32-64/Gaussian/Rev-C.02/g16/l1.exe "/scratch/1004929.venus01/Gau-17142.inp" -scrdir="/scratch/1004929.venus01/"
 Entering Link 1 = /app1/ia32-64/Gaussian/Rev-C.02/g16/l1.exe PID=     17170.
  
 Copyright (c) 1988-2021, Gaussian, Inc.  All Rights Reserved.
  
 This is part of the Gaussian(R) 16 program.  It is based on
 the Gaussian(R) 09 system (copyright 2009, Gaussian, Inc.),
 the Gaussian(R) 03 system (copyright 2003, Gaussian, Inc.),
 the Gaussian(R) 98 system (copyright 1998, Gaussian, Inc.),
 the Gaussian(R) 94 system (copyright 1995, Gaussian, Inc.),
 the Gaussian 92(TM) system (copyright 1992, Gaussian, Inc.),
 the Gaussian 90(TM) system (copyright 1990, Gaussian, Inc.),
 the Gaussian 88(TM) system (copyright 1988, Gaussian, Inc.),
 the Gaussian 86(TM) system (copyright 1986, Carnegie Mellon
 University), and the Gaussian 82(TM) system (copyright 1983,
 Carnegie Mellon University). Gaussian is a federally registered
 trademark of Gaussian, Inc.
  
 This software contains proprietary and confidential information,
 including trade secrets, belonging to Gaussian, Inc.
  
 This software is provided under written license and may be
 used, copied, transmitted, or stored only in accord with that
 written license.
  
 The following legend is applicable only to US Government
 contracts under FAR:
  
                    RESTRICTED RIGHTS LEGEND
  
 Use, reproduction and disclosure by the US Government is
 subject to restrictions as set forth in subparagraphs (a)
 and (c) of the Commercial Computer Software - Restricted
 Rights clause in FAR 52.227-19.
  
 Gaussian, Inc.
 340 Quinnipiac St., Bldg. 40, Wallingford CT 06492
  
  
 ---------------------------------------------------------------
 Warning -- This program may not be used in any manner that
 competes with the business of Gaussian, Inc. or will provide
 assistance to any competitor of Gaussian, Inc.  The licensee
 of this program is prohibited from giving any competitor of
 Gaussian, Inc. access to this program.  By using this program,
 the user acknowledges that Gaussian, Inc. is engaged in the
 business of creating and licensing software in the field of
 computational chemistry and represents and warrants to the
 licensee that it is not a competitor of Gaussian, Inc. and that
 it will not use this program in any manner prohibited above.
 ---------------------------------------------------------------
  

 Cite this work as:
 Gaussian 16, Revision C.02,
 M. J. Frisch, G. W. Trucks, H. B. Schlegel, G. E. Scuseria, 
 M. A. Robb, J. R. Cheeseman, G. Scalmani, V. Barone, 
 G. A. Petersson, H. Nakatsuji, X. Li, M. Caricato, A. V. Marenich, 
 J. Bloino, B. G. Janesko, R. Gomperts, B. Mennucci, H. P. Hratchian, 
 J. V. Ortiz, A. F. Izmaylov, J. L. Sonnenberg, D. Williams-Young, 
 F. Ding, F. Lipparini, F. Egidi, J. Goings, B. Peng, A. Petrone, 
 T. Henderson, D. Ranasinghe, V. G. Zakrzewski, J. Gao, N. Rega, 
 G. Zheng, W. Liang, M. Hada, M. Ehara, K. Toyota, R. Fukuda, 
 J. Hasegawa, M. Ishida, T. Nakajima, Y. Honda, O. Kitao, H. Nakai, 
 T. Vreven, K. Throssell, J. A. Montgomery, Jr., J. E. Peralta, 
 F. Ogliaro, M. J. Bearpark, J. J. Heyd, E. N. Brothers, K. N. Kudin, 
 V. N. Staroverov, T. A. Keith, R. Kobayashi, J. Normand, 
 K. Raghavachari, A. P. Rendell, J. C. Burant, S. S. Iyengar, 
 J. Tomasi, M. Cossi, J. M. Millam, M. Klene, C. Adamo, R. Cammi, 
 J. W. Ochterski, R. L. Martin, K. Morokuma, O. Farkas, 
 J. B. Foresman, and D. J. Fox, Gaussian, Inc., Wallingford CT, 2019.
 
 ******************************************
 Gaussian 16:  ES64L-G16RevC.02  7-Dec-2021
                12-Sep-2026 
 ******************************************
 %chk=ch2fcl_hf_sto3g.chk
 %mem=4GB
 %nprocshared=1
 Will use up to    1 processors via shared memory.
 --------------------------------
 #p hf/sto-3g opt=tight scf=tight
 --------------------------------
 1/7=10,18=20,19=15,38=1/1,3;
 2/9=110,12=2,17=6,18=5,40=1/2;
 3/6=3,11=9,25=1,30=1,71=1/1,2,3;
 4//1;
 5/5=2,32=2,38=5/2;
 6/7=2,8=2,9=2,10=2,28=1/1;
 7//1,2,3,16;
 1/7=10,18=20,19=15/3(2);
 2/9=110/2;
 99//99;
 2/9=110/2;
 3/6=3,11=9,25=1,30=1,71=1/1,2,3;
 4/5=5,16=3,69=1/1;
 5/5=2,32=2,38=5/2;
 7//1,2,3,16;
 1/7=10,18=20,19=15/3(-5);
 2/9=110/2;
 6/7=2,8=2,9=2,10=2,19=2,28=1/1;
 99/9=1/99;
 Leave Link    1 at Sat Sep 12 17:07:21 2026, MaxMem=   536870912 cpu:               0.0 elap:               0.1
 (Enter /app1/ia32-64/Gaussian/Rev-C.02/g16/l101.exe)
 ---------------------------------------------------------------
 CH2FCl (chlorofluoromethane) opt / HF/STO-3G (minimal accuracy)
 ---------------------------------------------------------------
 Symbolic Z-matrix:
 Charge =  0 Multiplicity = 1
 C
 F                    1     1.38 
 Cl                   1     1.77     2     110. 
 H                    1     1.09     2     110.     3     120.     0
 H                    1     1.09     2     110.     3    -120.     0
 
 ITRead=  0  0  0  0  0
 MicOpt= -1 -1 -1 -1 -1
 NAtoms=      5 NQM=        5 NQMF=       0 NMMI=      0 NMMIF=      0
                NMic=       0 NMicF=      0.
                    Isotopes and Nuclear Properties:
 (Nuclear quadrupole moments (NQMom) in fm**2, nuclear magnetic moments (NMagM)
  in nuclear magnetons)

  Atom         1           2           3           4           5
 IAtWgt=          12          19          35           1           1
 AtmWgt=  12.0000000  18.9984032  34.9688527   1.0078250   1.0078250
 NucSpn=           0           1           3           1           1
 AtZEff=  -0.0000000  -0.0000000  -0.0000000  -0.0000000  -0.0000000
 NQMom=    0.0000000   0.0000000  -8.1650000   0.0000000   0.0000000
 NMagM=    0.0000000   2.6288670   0.8218740   2.7928460   2.7928460
 AtZNuc=   6.0000000   9.0000000  17.0000000   1.0000000   1.0000000
 Leave Link  101 at Sat Sep 12 17:07:21 2026, MaxMem=   536870912 cpu:               0.2 elap:               0.2
 (Enter /app1/ia32-64/Gaussian/Rev-C.02/g16/l103.exe)

 GradGradGradGradGradGradGradGradGradGradGradGradGradGradGradGradGradGrad
 Berny optimization.
 Initialization pass.
                           ----------------------------
                           !    Initial Parameters    !
                           ! (Angstroms and Degrees)  !
 --------------------------                            --------------------------
 ! Name  Definition              Value          Derivative Info.                !
 --------------------------------------------------------------------------------
 ! R1    R(1,2)                  1.38           estimate D2E/DX2                !
 ! R2    R(1,3)                  1.77           estimate D2E/DX2                !
 ! R3    R(1,4)                  1.09           estimate D2E/DX2                !
 ! R4    R(1,5)                  1.09           estimate D2E/DX2                !
 ! A1    A(2,1,3)              110.0            estimate D2E/DX2                !
 ! A2    A(2,1,4)              110.0            estimate D2E/DX2                !
 ! A3    A(2,1,5)              110.0            estimate D2E/DX2                !
 ! A4    A(3,1,4)              108.9373         estimate D2E/DX2                !
 ! A5    A(3,1,5)              108.9373         estimate D2E/DX2                !
 ! A6    A(4,1,5)              108.9373         estimate D2E/DX2                !
 ! D1    D(2,1,4,3)           -120.6423         estimate D2E/DX2                !
 ! D2    D(2,1,5,3)            120.6423         estimate D2E/DX2                !
 ! D3    D(2,1,5,4)           -120.6423         estimate D2E/DX2                !
 ! D4    D(3,1,5,4)            118.7153         estimate D2E/DX2                !
 --------------------------------------------------------------------------------
 Trust Radius=3.00D-01 FncErr=1.00D-07 GrdErr=1.00D-07 EigMax=2.50D+02 EigMin=1.00D-04
 Number of steps in this run=     24 maximum allowed number of steps=    100.
 GradGradGradGradGradGradGradGradGradGradGradGradGradGradGradGradGradGrad

 Leave Link  103 at Sat Sep 12 17:07:21 2026, MaxMem=   536870912 cpu:               0.0 elap:               0.0
 (Enter /app1/ia32-64/Gaussian/Rev-C.02/g16/l202.exe)
                          Input orientation:                          
 ---------------------------------------------------------------------
 Center     Atomic      Atomic             Coordinates (Angstroms)
 Number     Number       Type             X           Y           Z
 ---------------------------------------------------------------------
      1          6           0        0.000000    0.000000    0.000000
      2          9           0        0.000000    0.000000    1.380000
      3         17           0        1.663256    0.000000   -0.605376
      4          1           0       -0.512132   -0.887039   -0.372802
      5          1           0       -0.512132    0.887039   -0.372802
 ---------------------------------------------------------------------
                    Distance matrix (angstroms):
                    1          2          3          4          5
     1  C    0.000000
     2  F    1.380000   0.000000
     3  Cl   1.770000   2.590007   0.000000
     4  H    1.090000   2.030131   2.360772   0.000000
     5  H    1.090000   2.030131   2.360772   1.774079   0.000000
 Stoichiometry    CH2ClF
 Framework group  CS[SG(CClF),X(H2)]
 Deg. of freedom     6
 Full point group                 CS      NOp   2
 Largest Abelian subgroup         CS      NOp   2
 Largest concise Abelian subgroup CS      NOp   2
                         Standard orientation:                         
 ---------------------------------------------------------------------
 Center     Atomic      Atomic             Coordinates (Angstroms)
 Number     Number       Type             X           Y           Z
 ---------------------------------------------------------------------
      1          6           0       -0.000000    0.802534    0.000000
      2          9           0        1.378226    0.732588    0.000000
      3         17           0       -0.688900   -0.827900    0.000000
      4          1           0       -0.346365    1.332904    0.887039
      5          1           0       -0.346365    1.332904   -0.887039
 ---------------------------------------------------------------------
 Rotational constants (GHZ):          41.1522660           5.6686396           5.1431673
 Leave Link  202 at Sat Sep 12 17:07:21 2026, MaxMem=   536870912 cpu:               0.0 elap:               0.0
 (Enter /app1/ia32-64/Gaussian/Rev-C.02/g16/l301.exe)
 Standard basis: STO-3G (5D, 7F)
 Ernie: Thresh=  0.10000D-02 Tol=  0.10000D-05 Strict=F.
 There are    16 symmetry adapted cartesian basis functions of A'  symmetry.
 There are     5 symmetry adapted cartesian basis functions of A"  symmetry.
 There are    16 symmetry adapted basis functions of A'  symmetry.
 There are     5 symmetry adapted basis functions of A"  symmetry.
    21 basis functions,    63 primitive gaussians,    21 cartesian basis functions
    17 alpha electrons       17 beta electrons
       nuclear repulsion energy       100.8993234275 Hartrees.
 IExCor=    0 DFT=F Ex=HF Corr=None ExCW=0 ScaHFX=  1.000000
 ScaDFX=  1.000000  1.000000  1.000000  1.000000 ScalE2=  1.000000  1.000000
 IRadAn=      5 IRanWt=     -1 IRanGd=            0 ICorTp=0 IEmpDi=  4
 NAtoms=    5 NActive=    5 NUniq=    4 SFac= 1.56D+00 NAtFMM=   60 NAOKFM=F Big=F
 Integral buffers will be    131072 words long.
 Raffenetti 1 integral format.
 Two-electron integral symmetry is turned on.
 Leave Link  301 at Sat Sep 12 17:07:22 2026, MaxMem=   536870912 cpu:               0.0 elap:               0.0
 (Enter /app1/ia32-64/Gaussian/Rev-C.02/g16/l302.exe)
 NPDir=0 NMtPBC=     1 NCelOv=     1 NCel=       1 NClECP=     1 NCelD=      1
         NCelK=      1 NCelE2=     1 NClLst=     1 CellRange=     0.0.
 One-electron integrals computed using PRISM.
 One-electron integral symmetry used in STVInt
 NBasis=    21 RedAO= T EigKep=  2.51D-01  NBF=    16     5
 NBsUse=    21 1.00D-06 EigRej= -1.00D+00 NBFU=    16     5
 Leave Link  302 at Sat Sep 12 17:07:22 2026, MaxMem=   536870912 cpu:               0.1 elap:               0.1
 (Enter /app1/ia32-64/Gaussian/Rev-C.02/g16/l303.exe)
 DipDrv:  MaxL=1.
 Leave Link  303 at Sat Sep 12 17:07:22 2026, MaxMem=   536870912 cpu:               0.0 elap:               0.0
 (Enter /app1/ia32-64/Gaussian/Rev-C.02/g16/l401.exe)
 ExpMin= 1.69D-01 ExpMax= 6.01D+02 ExpMxC= 6.01D+02 IAcc=3 IRadAn=         5 AccDes= 0.00D+00
 Harris functional with IExCor=  205 and IRadAn=       5 diagonalized for initial guess.
 HarFok:  IExCor=  205 AccDes= 0.00D+00 IRadAn=         5 IDoV= 1 UseB2=F ITyADJ=14
 ICtDFT=  3500011 ScaDFX=  1.000000  1.000000  1.000000  1.000000
 FoFCou: FMM=F IPFlag=           0 FMFlag=      100000 FMFlg1=           0
         NFxFlg=           0 DoJE=T BraDBF=F KetDBF=T FulRan=T
         wScrn=  0.000000 ICntrl=       500 IOpCl=  0 I1Cent=   200000004 NGrid=           0
         NMat0=    1 NMatS0=      1 NMatT0=    0 NMatD0=    1 NMtDS0=    0 NMtDT0=    0
 Petite list used in FoFCou.
 Harris En= -590.577158630035    
 JPrj=0 DoOrth=F DoCkMO=F.
 Initial guess orbital symmetries:
       Occupied  (A') (A') (A') (A') (A') (A") (A') (A') (A') (A')
                 (A") (A') (A') (A") (A') (A') (A")
       Virtual   (A') (A') (A") (A')
 The electronic state of the initial guess is 1-A'.
 Leave Link  401 at Sat Sep 12 17:07:22 2026, MaxMem=   536870912 cpu:               0.1 elap:               0.1
 (Enter /app1/ia32-64/Gaussian/Rev-C.02/g16/l502.exe)
 Keep R1 ints in memory in symmetry-blocked form, NReq=834768.
 FoFCou: FMM=F IPFlag=           0 FMFlag=           0 FMFlg1=           0
         NFxFlg=           0 DoJE=F BraDBF=F KetDBF=F FulRan=T
         wScrn=  0.000000 ICntrl=       600 IOpCl=  0 I1Cent=           0 NGrid=           0
         NMat0=    1 NMatS0=    231 NMatT0=    0 NMatD0=    1 NMtDS0=    0 NMtDT0=    0
 Petite list used in FoFCou.
 Closed shell SCF:
 Using DIIS extrapolation, IDIIS=  1040.
 NGot=   536870912 LenX=   536853818 LenY=   536852936
 Requested convergence on RMS density matrix=1.00D-08 within 128 cycles.
 Requested convergence on MAX density matrix=1.00D-06.
 Requested convergence on             energy=1.00D-06.
 No special actions if energy rises.

 Cycle   1  Pass 1  IDiag  1:
 E= -591.156243723307    
 DIIS: error= 3.92D-02 at cycle   1 NSaved=   1.
 NSaved= 1 IEnMin= 1 EnMin= -591.156243723307     IErMin= 1 ErrMin= 3.92D-02
 ErrMax= 3.92D-02  0.00D+00 EMaxC= 1.00D-01 BMatC= 2.25D-02 BMatP= 2.25D-02
 IDIUse=3 WtCom= 6.08D-01 WtEn= 3.92D-01
 Coeff-Com:  0.100D+01
 Coeff-En:   0.100D+01
 Coeff:      0.100D+01
 Gap=     0.770 Goal=   None    Shift=    0.000
 GapD=    0.770 DampG=2.000 DampE=0.500 DampFc=1.0000 IDamp=-1.
 RMSDP=6.39D-03 MaxDP=4.03D-02              OVMax= 0.00D+00

 Cycle   2  Pass 1  IDiag  1:
 E= -591.169208373928     Delta-E=       -0.012964650621 Rises=F Damp=F
 DIIS: error= 3.81D-03 at cycle   2 NSaved=   2.
 NSaved= 2 IEnMin= 2 EnMin= -591.169208373928     IErMin= 2 ErrMin= 3.81D-03
 ErrMax= 3.81D-03  0.00D+00 EMaxC= 1.00D-01 BMatC= 4.35D-04 BMatP= 2.25D-02
 IDIUse=3 WtCom= 9.62D-01 WtEn= 3.81D-02
 Coeff-Com: -0.547D-01 0.105D+01
 Coeff-En:   0.000D+00 0.100D+01
 Coeff:     -0.526D-01 0.105D+01
 Gap=     0.753 Goal=   None    Shift=    0.000
 RMSDP=2.00D-03 MaxDP=1.63D-02 DE=-1.30D-02 OVMax= 0.00D+00

 Cycle   3  Pass 1  IDiag  1:
 E= -591.170118967794     Delta-E=       -0.000910593866 Rises=F Damp=F
 DIIS: error= 1.59D-03 at cycle   3 NSaved=   3.
 NSaved= 3 IEnMin= 3 EnMin= -591.170118967794     IErMin= 3 ErrMin= 1.59D-03
 ErrMax= 1.59D-03  0.00D+00 EMaxC= 1.00D-01 BMatC= 4.98D-05 BMatP= 4.35D-04
 IDIUse=3 WtCom= 9.84D-01 WtEn= 1.59D-02
 Coeff-Com: -0.119D-01-0.322D-01 0.104D+01
 Coeff-En:   0.000D+00 0.000D+00 0.100D+01
 Coeff:     -0.117D-01-0.317D-01 0.104D+01
 Gap=     0.754 Goal=   None    Shift=    0.000
 RMSDP=6.92D-04 MaxDP=4.51D-03 DE=-9.11D-04 OVMax= 0.00D+00

 Cycle   4  Pass 1  IDiag  1:
 E= -591.170237354694     Delta-E=       -0.000118386899 Rises=F Damp=F
 DIIS: error= 4.96D-04 at cycle   4 NSaved=   4.
 NSaved= 4 IEnMin= 4 EnMin= -591.170237354694     IErMin= 4 ErrMin= 4.96D-04
 ErrMax= 4.96D-04  0.00D+00 EMaxC= 1.00D-01 BMatC= 5.62D-06 BMatP= 4.98D-05
 IDIUse=3 WtCom= 9.95D-01 WtEn= 4.96D-03
 Coeff-Com:  0.666D-02-0.130D+00-0.947D-01 0.122D+01
 Coeff-En:   0.000D+00 0.000D+00 0.000D+00 0.100D+01
 Coeff:      0.662D-02-0.129D+00-0.943D-01 0.122D+01
 Gap=     0.753 Goal=   None    Shift=    0.000
 RMSDP=3.48D-04 MaxDP=2.67D-03 DE=-1.18D-04 OVMax= 0.00D+00

 Cycle   5  Pass 1  IDiag  1:
 E= -591.170253675459     Delta-E=       -0.000016320765 Rises=F Damp=F
 DIIS: error= 3.72D-05 at cycle   5 NSaved=   5.
 NSaved= 5 IEnMin= 5 EnMin= -591.170253675459     IErMin= 5 ErrMin= 3.72D-05
 ErrMax= 3.72D-05  0.00D+00 EMaxC= 1.00D-01 BMatC= 4.01D-08 BMatP= 5.62D-06
 IDIUse=1 WtCom= 1.00D+00 WtEn= 0.00D+00
 Coeff-Com: -0.146D-02 0.323D-01 0.104D-01-0.290D+00 0.125D+01
 Coeff:     -0.146D-02 0.323D-01 0.104D-01-0.290D+00 0.125D+01
 Gap=     0.753 Goal=   None    Shift=    0.000
 RMSDP=2.51D-05 MaxDP=1.59D-04 DE=-1.63D-05 OVMax= 0.00D+00

 Cycle   6  Pass 1  IDiag  1:
 E= -591.170253784485     Delta-E=       -0.000000109026 Rises=F Damp=F
 DIIS: error= 4.71D-06 at cycle   6 NSaved=   6.
 NSaved= 6 IEnMin= 6 EnMin= -591.170253784485     IErMin= 6 ErrMin= 4.71D-06
 ErrMax= 4.71D-06  0.00D+00 EMaxC= 1.00D-01 BMatC= 9.68D-10 BMatP= 4.01D-08
 IDIUse=1 WtCom= 1.00D+00 WtEn= 0.00D+00
 Coeff-Com: -0.290D-04 0.607D-04 0.261D-02-0.838D-02-0.130D+00 0.114D+01
 Coeff:     -0.290D-04 0.607D-04 0.261D-02-0.838D-02-0.130D+00 0.114D+01
 Gap=     0.753 Goal=   None    Shift=    0.000
 RMSDP=3.80D-06 MaxDP=1.89D-05 DE=-1.09D-07 OVMax= 0.00D+00

 Cycle   7  Pass 1  IDiag  1:
 E= -591.170253787057     Delta-E=       -0.000000002572 Rises=F Damp=F
 DIIS: error= 1.56D-06 at cycle   7 NSaved=   7.
 NSaved= 7 IEnMin= 7 EnMin= -591.170253787057     IErMin= 7 ErrMin= 1.56D-06
 ErrMax= 1.56D-06  0.00D+00 EMaxC= 1.00D-01 BMatC= 3.74D-11 BMatP= 9.68D-10
 IDIUse=1 WtCom= 1.00D+00 WtEn= 0.00D+00
 Coeff-Com:  0.386D-04-0.592D-03-0.123D-02 0.846D-02 0.376D-01-0.501D+00
 Coeff-Com:  0.146D+01
 Coeff:      0.386D-04-0.592D-03-0.123D-02 0.846D-02 0.376D-01-0.501D+00
 Coeff:      0.146D+01
 Gap=     0.753 Goal=   None    Shift=    0.000
 RMSDP=8.35D-07 MaxDP=6.13D-06 DE=-2.57D-09 OVMax= 0.00D+00

 Cycle   8  Pass 1  IDiag  1:
 E= -591.170253787182     Delta-E=       -0.000000000125 Rises=F Damp=F
 DIIS: error= 5.07D-07 at cycle   8 NSaved=   8.
 NSaved= 8 IEnMin= 8 EnMin= -591.170253787182     IErMin= 8 ErrMin= 5.07D-07
 ErrMax= 5.07D-07  0.00D+00 EMaxC= 1.00D-01 BMatC= 2.59D-12 BMatP= 3.74D-11
 IDIUse=1 WtCom= 1.00D+00 WtEn= 0.00D+00
 Coeff-Com: -0.127D-04 0.200D-03 0.388D-03-0.276D-02-0.136D-01 0.179D+00
 Coeff-Com: -0.695D+00 0.153D+01
 Coeff:     -0.127D-04 0.200D-03 0.388D-03-0.276D-02-0.136D-01 0.179D+00
 Coeff:     -0.695D+00 0.153D+01
 Gap=     0.753 Goal=   None    Shift=    0.000
 RMSDP=2.70D-07 MaxDP=2.17D-06 DE=-1.25D-10 OVMax= 0.00D+00

 Cycle   9  Pass 1  IDiag  1:
 E= -591.170253787192     Delta-E=       -0.000000000010 Rises=F Damp=F
 DIIS: error= 6.85D-08 at cycle   9 NSaved=   9.
 NSaved= 9 IEnMin= 9 EnMin= -591.170253787192     IErMin= 9 ErrMin= 6.85D-08
 ErrMax= 6.85D-08  0.00D+00 EMaxC= 1.00D-01 BMatC= 7.18D-14 BMatP= 2.59D-12
 IDIUse=1 WtCom= 1.00D+00 WtEn= 0.00D+00
 Coeff-Com:  0.869D-06-0.104D-04-0.489D-04 0.222D-03 0.283D-02-0.293D-01
 Coeff-Com:  0.125D+00-0.428D+00 0.133D+01
 Coeff:      0.869D-06-0.104D-04-0.489D-04 0.222D-03 0.283D-02-0.293D-01
 Coeff:      0.125D+00-0.428D+00 0.133D+01
 Gap=     0.753 Goal=   None    Shift=    0.000
 RMSDP=4.66D-08 MaxDP=3.44D-07 DE=-1.03D-11 OVMax= 0.00D+00

 Cycle  10  Pass 1  IDiag  1:
 E= -591.170253787192     Delta-E=        0.000000000000 Rises=F Damp=F
 DIIS: error= 7.66D-09 at cycle  10 NSaved=  10.
 NSaved=10 IEnMin= 9 EnMin= -591.170253787192     IErMin=10 ErrMin= 7.66D-09
 ErrMax= 7.66D-09  0.00D+00 EMaxC= 1.00D-01 BMatC= 9.56D-16 BMatP= 7.18D-14
 IDIUse=1 WtCom= 1.00D+00 WtEn= 0.00D+00
 Coeff-Com: -0.126D-06 0.799D-06 0.117D-04-0.382D-04-0.872D-03 0.832D-02
 Coeff-Com: -0.354D-01 0.128D+00-0.457D+00 0.136D+01
 Coeff:     -0.126D-06 0.799D-06 0.117D-04-0.382D-04-0.872D-03 0.832D-02
 Coeff:     -0.354D-01 0.128D+00-0.457D+00 0.136D+01
 Gap=     0.753 Goal=   None    Shift=    0.000
 RMSDP=5.37D-09 MaxDP=3.46D-08 DE= 4.55D-13 OVMax= 0.00D+00

 SCF Done:  E(RHF) =  -591.170253787     A.U. after   10 cycles
            NFock= 10  Conv=0.54D-08     -V/T= 2.0165
 KE= 5.815629810532D+02 PE=-1.602080201694D+03 EE= 3.284476434260D+02
 Leave Link  502 at Sat Sep 12 17:07:22 2026, MaxMem=   536870912 cpu:               0.0 elap:               0.1
 (Enter /app1/ia32-64/Gaussian/Rev-C.02/g16/l601.exe)
 Copying SCF densities to generalized density rwf, IOpCl= 0 IROHF=0.

 **********************************************************************

            Population analysis using the SCF Density.

 **********************************************************************

 Orbital symmetries:
       Occupied  (A') (A') (A') (A') (A') (A') (A") (A') (A') (A')
                 (A") (A') (A') (A") (A') (A') (A")
       Virtual   (A') (A') (A") (A')
 The electronic state is 1-A'.
 Alpha  occ. eigenvalues -- -103.70422 -25.98594 -11.20266 -10.38744  -7.83169
 Alpha  occ. eigenvalues --   -7.82589  -7.82580  -1.53252  -1.07389  -0.86511
 Alpha  occ. eigenvalues --   -0.66953  -0.61659  -0.57221  -0.47720  -0.44527
 Alpha  occ. eigenvalues --   -0.40302  -0.39196
 Alpha virt. eigenvalues --    0.36143   0.54722   0.63620   0.65712
          Condensed to atoms (all electrons):
               1          2          3          4          5
     1  C    4.748706   0.217977   0.219716   0.375077   0.375077
     2  F    0.217977   8.939139  -0.013797  -0.013721  -0.013721
     3  Cl   0.219716  -0.013797  16.999023  -0.025357  -0.025357
     4  H    0.375077  -0.013721  -0.025357   0.585861  -0.025189
     5  H    0.375077  -0.013721  -0.025357  -0.025189   0.585861
 Mulliken charges:
               1
     1  C    0.063446
     2  F   -0.115876
     3  Cl  -0.154228
     4  H    0.103329
     5  H    0.103329
 Sum of Mulliken charges =  -0.00000
 Mulliken charges with hydrogens summed into heavy atoms:
               1
     1  C    0.270104
     2  F   -0.115876
     3  Cl  -0.154228
 Electronic spatial extent (au):  <R**2>=            231.3713
 Charge=             -0.0000 electrons
 Dipole moment (field-independent basis, Debye):
    X=             -0.2389    Y=              2.0796    Z=             -0.0000  Tot=              2.0933
 Quadrupole moment (field-independent basis, Debye-Ang):
   XX=            -23.8807   YY=            -21.5284   ZZ=            -21.4204
   XY=             -1.5617   XZ=              0.0000   YZ=             -0.0000
 Traceless Quadrupole moment (field-independent basis, Debye-Ang):
   XX=             -1.6042   YY=              0.7481   ZZ=              0.8561
   XY=             -1.5617   XZ=              0.0000   YZ=             -0.0000
 Octapole moment (field-independent basis, Debye-Ang**2):
  XXX=              8.3489  YYY=              3.9955  ZZZ=             -0.0000  XYY=              2.3005
  XXY=              0.3603  XXZ=             -0.0000  XZZ=              2.9703  YZZ=              2.1513
  YYZ=             -0.0000  XYZ=              0.0000
 Hexadecapole moment (field-independent basis, Debye-Ang**3):
 XXXX=            -97.2053 YYYY=           -107.5437 ZZZZ=            -22.5597 XXXY=            -31.2709
 XXXZ=             -0.0000 YYYX=            -29.3376 YYYZ=              0.0000 ZZZX=              0.0000
 ZZZY=             -0.0000 XXYY=            -34.5674 XXZZ=            -19.7325 YYZZ=            -21.1648
 XXYZ=             -0.0000 YYXZ=              0.0000 ZZXY=            -10.6388
 N-N= 1.008993234275D+02 E-N=-1.602080201681D+03  KE= 5.815629810532D+02
 Symmetry A'   KE= 5.301009845171D+02
 Symmetry A"   KE= 5.146199653615D+01
 No NMR shielding tensors so no spin-rotation constants.
 Leave Link  601 at Sat Sep 12 17:07:22 2026, MaxMem=   536870912 cpu:               0.1 elap:               0.1
 (Enter /app1/ia32-64/Gaussian/Rev-C.02/g16/l701.exe)
 ... and contract with generalized density number  0.
 Compute integral first derivatives.
 Leave Link  701 at Sat Sep 12 17:07:22 2026, MaxMem=   536870912 cpu:               0.0 elap:               0.1
 (Enter /app1/ia32-64/Gaussian/Rev-C.02/g16/l702.exe)
 L702 exits ... SP integral derivatives will be done elsewhere.
 Leave Link  702 at Sat Sep 12 17:07:22 2026, MaxMem=   536870912 cpu:               0.0 elap:               0.0
 (Enter /app1/ia32-64/Gaussian/Rev-C.02/g16/l703.exe)
 Integral derivatives from FoFJK, PRISM(SPDF).
 Compute integral first derivatives, UseDBF=F ICtDFT=           0.
 Calling FoFJK, ICntrl=      2127 FMM=F ISym2X=1 I1Cent= 0 IOpClX= 0 NMat=1 NMatS=1 NMatT=0.
 FoFJK:  IHMeth= 1 ICntrl=    2127 DoSepK=F KAlg= 0 I1Cent=           0 FoldK=F
 IRaf=         0 NMat=       1 IRICut=       1 DoRegI=T DoRafI=F ISym2E= 1 IDoP0=0 IntGTp=1.
 FoFCou: FMM=F IPFlag=           0 FMFlag=      100000 FMFlg1=         800
         NFxFlg=           0 DoJE=F BraDBF=F KetDBF=F FulRan=T
         wScrn=  0.000000 ICntrl=      2127 IOpCl=  0 I1Cent=           0 NGrid=           0
         NMat0=    1 NMatS0=      1 NMatT0=    0 NMatD0=    1 NMtDS0=    0 NMtDT0=    0
 Petite list used in FoFCou.
 Leave Link  703 at Sat Sep 12 17:07:22 2026, MaxMem=   536870912 cpu:               0.1 elap:               0.1
 (Enter /app1/ia32-64/Gaussian/Rev-C.02/g16/l716.exe)
 Dipole        =-9.39797644D-02 8.18171295D-01-2.22044605D-16
 ***** Axes restored to original set *****
 -------------------------------------------------------------------
 Center     Atomic                   Forces (Hartrees/Bohr)
 Number     Number              X              Y              Z
 -------------------------------------------------------------------
      1        6          -0.024676703   -0.000000000    0.028712777
      2        9          -0.000915648   -0.000000000   -0.005191658
      3       17           0.029702466    0.000000000   -0.013679589
      4        1          -0.002055057   -0.008506788   -0.004920765
      5        1          -0.002055057    0.008506788   -0.004920765
 -------------------------------------------------------------------
 Cartesian Forces:  Max     0.029702466 RMS     0.013495994
 Leave Link  716 at Sat Sep 12 17:07:23 2026, MaxMem=   536870912 cpu:               0.0 elap:               0.0
 (Enter /app1/ia32-64/Gaussian/Rev-C.02/g16/l103.exe)

 GradGradGradGradGradGradGradGradGradGradGradGradGradGradGradGradGradGrad
 Berny optimization.
 FormGI is forming the generalized inverse of G from B-inverse, IUseBI=4.
 Internal  Forces:  Max     0.032589883 RMS     0.009666212
 Search for a local minimum.
 Step number   1 out of a maximum of   24
 All quantities printed in internal units (Hartrees-Bohrs-Radians)
 RMS Force = .96662D-02 SwitMx=.10000D-02 MixMth= 1
 Mixed Optimization -- RFO/linear search
 Second derivative matrix not updated -- first step.
 The second derivative matrix:
                          R1        R2        R3        R4        A1
           R1           0.49102
           R2           0.00000   0.28630
           R3           0.00000   0.00000   0.34813
           R4           0.00000   0.00000   0.00000   0.34813
           A1           0.00000   0.00000   0.00000   0.00000   0.25000
           A2           0.00000   0.00000   0.00000   0.00000   0.00000
           A3           0.00000   0.00000   0.00000   0.00000   0.00000
           A4           0.00000   0.00000   0.00000   0.00000   0.00000
           A5           0.00000   0.00000   0.00000   0.00000   0.00000
           A6           0.00000   0.00000   0.00000   0.00000   0.00000
           D1           0.00000   0.00000   0.00000   0.00000   0.00000
           D2           0.00000   0.00000   0.00000   0.00000   0.00000
           D3           0.00000   0.00000   0.00000   0.00000   0.00000
           D4           0.00000   0.00000   0.00000   0.00000   0.00000
                          A2        A3        A4        A5        A6
           A2           0.16000
           A3           0.00000   0.16000
           A4           0.00000   0.00000   0.16000
           A5           0.00000   0.00000   0.00000   0.16000
           A6           0.00000   0.00000   0.00000   0.00000   0.16000
           D1           0.00000   0.00000   0.00000   0.00000   0.00000
           D2           0.00000   0.00000   0.00000   0.00000   0.00000
           D3           0.00000   0.00000   0.00000   0.00000   0.00000
           D4           0.00000   0.00000   0.00000   0.00000   0.00000
                          D1        D2        D3        D4
           D1           0.00235
           D2           0.00000   0.00235
           D3           0.00000   0.00000   0.00235
           D4           0.00000   0.00000   0.00000   0.00235
 ITU=  0
     Eigenvalues ---    0.05783   0.06822   0.08865   0.16000   0.16807
     Eigenvalues ---    0.28630   0.34813   0.34813   0.49102
 RFO step:  Lambda=-4.59135114D-03 EMin= 5.78280322D-02
 Linear search not attempted -- first point.
 Iteration  1 RMS(Cart)=  0.02873827 RMS(Int)=  0.00042905
 Iteration  2 RMS(Cart)=  0.00045534 RMS(Int)=  0.00013234
 Iteration  3 RMS(Cart)=  0.00000011 RMS(Int)=  0.00013234
 ITry= 1 IFail=0 DXMaxC= 6.62D-02 DCOld= 1.00D+10 DXMaxT= 3.00D-01 DXLimC= 3.00D+00 Rises=F
 ClnCor:  largest displacement from symmetrization is 1.50D-03 for atom     5.
 Variable       Old X    -DE/DX   Delta X   Delta X   Delta X     New X
                                 (Linear)    (Quad)   (Total)
    R1        2.60782  -0.00519   0.00000  -0.01048  -0.01048   2.59735
    R2        3.34482   0.03259   0.00000   0.11203   0.11203   3.45685
    R3        2.05980   0.00957   0.00000   0.02714   0.02721   2.08702
    R4        2.05980   0.00957   0.00000   0.02714   0.02721   2.08702
    A1        1.91986   0.00205   0.00000   0.01705   0.01725   1.93711
    A2        1.91986  -0.00030   0.00000   0.01139   0.01130   1.93116
    A3        1.91986   0.00083   0.00000   0.01211   0.01130   1.93116
    A4        1.90131  -0.00174   0.00000  -0.02494  -0.02524   1.87608
    A5        1.90131  -0.00323   0.00000  -0.02598  -0.02524   1.87608
    A6        1.90131   0.00232   0.00000   0.00959   0.00927   1.91058
    D1       -2.10561  -0.00125   0.00000  -0.01233  -0.01212  -2.11772
    D2        2.10561   0.00101   0.00000   0.01212   0.01212   2.11772
    D3       -2.10561  -0.00160   0.00000  -0.02744  -0.02718  -2.13278
    D4        2.07197  -0.00262   0.00000  -0.03956  -0.03929   2.03268
         Item               Value     Threshold  Converged?
 Maximum Force            0.032590     0.000015     NO 
 RMS     Force            0.009666     0.000010     NO 
 Maximum Displacement     0.066243     0.000060     NO 
 RMS     Displacement     0.028779     0.000040     NO 
 Predicted change in Energy=-2.337594D-03
 Lowest energy point so far.  Saving SCF results.
 GradGradGradGradGradGradGradGradGradGradGradGradGradGradGradGradGradGrad

 Leave Link  103 at Sat Sep 12 17:07:23 2026, MaxMem=   536870912 cpu:               0.0 elap:               0.0
 (Enter /app1/ia32-64/Gaussian/Rev-C.02/g16/l202.exe)
                          Input orientation:                          
 ---------------------------------------------------------------------
 Center     Atomic      Atomic             Coordinates (Angstroms)
 Number     Number       Type             X           Y           Z
 ---------------------------------------------------------------------
      1          6           0       -0.011974    0.000000    0.017328
      2          9           0       -0.016959   -0.000000    1.391776
      3         17           0        1.698310   -0.000000   -0.631682
      4          1           0       -0.515479   -0.901723   -0.373926
      5          1           0       -0.515479    0.901723   -0.373926
 ---------------------------------------------------------------------
                    Distance matrix (angstroms):
                    1          2          3          4          5
     1  C    0.000000
     2  F    1.374457   0.000000
     3  Cl   1.829286   2.652646   0.000000
     4  H    1.104401   2.044341   2.404248   0.000000
     5  H    1.104401   2.044341   2.404248   1.803446   0.000000
 Stoichiometry    CH2ClF
 Framework group  CS[SG(CClF),X(H2)]
 Deg. of freedom     6
 Full point group                 CS      NOp   2
 RotChk:  IX=0 Diff= 4.37D-02
 Largest Abelian subgroup         CS      NOp   2
 Largest concise Abelian subgroup CS      NOp   2
                         Standard orientation:                         
 ---------------------------------------------------------------------
 Center     Atomic      Atomic             Coordinates (Angstroms)
 Number     Number       Type             X           Y           Z
 ---------------------------------------------------------------------
      1          6           0       -0.000000    0.824366   -0.000000
      2          9           0        1.374277    0.802166   -0.000000
      3         17           0       -0.682709   -0.872748    0.000000
      4          1           0       -0.381219    1.335511    0.901723
      5          1           0       -0.381219    1.335511   -0.901723
 ---------------------------------------------------------------------
 Rotational constants (GHZ):          41.1265536           5.3801459           4.9092333
 Leave Link  202 at Sat Sep 12 17:07:23 2026, MaxMem=   536870912 cpu:               0.0 elap:               0.0
 (Enter /app1/ia32-64/Gaussian/Rev-C.02/g16/l301.exe)
 Standard basis: STO-3G (5D, 7F)
 Ernie: Thresh=  0.10000D-02 Tol=  0.10000D-05 Strict=F.
 There are    16 symmetry adapted cartesian basis functions of A'  symmetry.
 There are     5 symmetry adapted cartesian basis functions of A"  symmetry.
 There are    16 symmetry adapted basis functions of A'  symmetry.
 There are     5 symmetry adapted basis functions of A"  symmetry.
    21 basis functions,    63 primitive gaussians,    21 cartesian basis functions
    17 alpha electrons       17 beta electrons
       nuclear repulsion energy        99.0050941510 Hartrees.
 IExCor=    0 DFT=F Ex=HF Corr=None ExCW=0 ScaHFX=  1.000000
 ScaDFX=  1.000000  1.000000  1.000000  1.000000 ScalE2=  1.000000  1.000000
 IRadAn=      5 IRanWt=     -1 IRanGd=            0 ICorTp=0 IEmpDi=  4
 NAtoms=    5 NActive=    5 NUniq=    4 SFac= 1.56D+00 NAtFMM=   60 NAOKFM=F Big=F
 Integral buffers will be    131072 words long.
 Raffenetti 1 integral format.
 Two-electron integral symmetry is turned on.
 Leave Link  301 at Sat Sep 12 17:07:23 2026, MaxMem=   536870912 cpu:               0.0 elap:               0.0
 (Enter /app1/ia32-64/Gaussian/Rev-C.02/g16/l302.exe)
 NPDir=0 NMtPBC=     1 NCelOv=     1 NCel=       1 NClECP=     1 NCelD=      1
         NCelK=      1 NCelE2=     1 NClLst=     1 CellRange=     0.0.
 One-electron integrals computed using PRISM.
 One-electron integral symmetry used in STVInt
 NBasis=    21 RedAO= T EigKep=  2.62D-01  NBF=    16     5
 NBsUse=    21 1.00D-06 EigRej= -1.00D+00 NBFU=    16     5
 Leave Link  302 at Sat Sep 12 17:07:23 2026, MaxMem=   536870912 cpu:               0.1 elap:               0.1
 (Enter /app1/ia32-64/Gaussian/Rev-C.02/g16/l303.exe)
 DipDrv:  MaxL=1.
 Leave Link  303 at Sat Sep 12 17:07:23 2026, MaxMem=   536870912 cpu:               0.0 elap:               0.0
 (Enter /app1/ia32-64/Gaussian/Rev-C.02/g16/l401.exe)
 Initial guess from the checkpoint file:  "ch2fcl_hf_sto3g.chk"
 B after Tr=    -0.000000    0.000000    0.000000
         Rot=    0.999875    0.000000    0.000000   -0.015791 Ang=  -1.81 deg.
 Guess basis will be translated and rotated to current coordinates.
 JPrj=2 DoOrth=T DoCkMO=T.
 Initial guess orbital symmetries:
       Occupied  (A') (A') (A') (A') (A') (A') (A") (A') (A') (A')
                 (A") (A') (A') (A") (A') (A') (A")
       Virtual   (A') (A') (A") (A')
 The electronic state of the initial guess is 1-A'.
 Generating alternative initial guess.
 ExpMin= 1.69D-01 ExpMax= 6.01D+02 ExpMxC= 6.01D+02 IAcc=3 IRadAn=         5 AccDes= 0.00D+00
 Harris functional with IExCor=  205 and IRadAn=       5 diagonalized for initial guess.
 HarFok:  IExCor=  205 AccDes= 0.00D+00 IRadAn=         5 IDoV= 1 UseB2=F ITyADJ=14
 ICtDFT=  3500011 ScaDFX=  1.000000  1.000000  1.000000  1.000000
 FoFCou: FMM=F IPFlag=           0 FMFlag=      100000 FMFlg1=           0
         NFxFlg=           0 DoJE=T BraDBF=F KetDBF=T FulRan=T
         wScrn=  0.000000 ICntrl=       500 IOpCl=  0 I1Cent=   200000004 NGrid=           0
         NMat0=    1 NMatS0=      1 NMatT0=    0 NMatD0=    1 NMtDS0=    0 NMtDT0=    0
 Petite list used in FoFCou.
 Harris En= -590.579276678767    
 Leave Link  401 at Sat Sep 12 17:07:23 2026, MaxMem=   536870912 cpu:               0.1 elap:               0.1
 (Enter /app1/ia32-64/Gaussian/Rev-C.02/g16/l502.exe)
 Keep R1 ints in memory in symmetry-blocked form, NReq=834737.
 FoFCou: FMM=F IPFlag=           0 FMFlag=           0 FMFlg1=           0
         NFxFlg=           0 DoJE=F BraDBF=F KetDBF=F FulRan=T
         wScrn=  0.000000 ICntrl=       600 IOpCl=  0 I1Cent=           0 NGrid=           0
         NMat0=    1 NMatS0=    231 NMatT0=    0 NMatD0=    1 NMtDS0=    0 NMtDT0=    0
 Petite list used in FoFCou.
 Closed shell SCF:
 Using DIIS extrapolation, IDIIS=  1040.
 NGot=   536870912 LenX=   536853818 LenY=   536852936
 Requested convergence on RMS density matrix=1.00D-08 within 128 cycles.
 Requested convergence on MAX density matrix=1.00D-06.
 Requested convergence on             energy=1.00D-06.
 No special actions if energy rises.

 Cycle   1  Pass 1  IDiag  1:
 E= -591.171782048785    
 DIIS: error= 2.74D-03 at cycle   1 NSaved=   1.
 NSaved= 1 IEnMin= 1 EnMin= -591.171782048785     IErMin= 1 ErrMin= 2.74D-03
 ErrMax= 2.74D-03  0.00D+00 EMaxC= 1.00D-01 BMatC= 3.14D-04 BMatP= 3.14D-04
 IDIUse=3 WtCom= 9.73D-01 WtEn= 2.74D-02
 Coeff-Com:  0.100D+01
 Coeff-En:   0.100D+01
 Coeff:      0.100D+01
 Gap=     0.721 Goal=   None    Shift=    0.000
 GapD=    0.721 DampG=2.000 DampE=1.000 DampFc=2.0000 IDamp=-1.
 RMSDP=1.38D-03 MaxDP=1.10D-02              OVMax= 0.00D+00

 Cycle   2  Pass 1  IDiag  1:
 E= -591.172183435104     Delta-E=       -0.000401386319 Rises=F Damp=F
 DIIS: error= 7.27D-04 at cycle   2 NSaved=   2.
 NSaved= 2 IEnMin= 2 EnMin= -591.172183435104     IErMin= 2 ErrMin= 7.27D-04
 ErrMax= 7.27D-04  0.00D+00 EMaxC= 1.00D-01 BMatC= 1.59D-05 BMatP= 3.14D-04
 IDIUse=3 WtCom= 9.93D-01 WtEn= 7.27D-03
 Coeff-Com: -0.279D-01 0.103D+01
 Coeff-En:   0.000D+00 0.100D+01
 Coeff:     -0.277D-01 0.103D+01
 Gap=     0.716 Goal=   None    Shift=    0.000
 RMSDP=4.34D-04 MaxDP=2.52D-03 DE=-4.01D-04 OVMax= 0.00D+00

 Cycle   3  Pass 1  IDiag  1:
 E= -591.172221187141     Delta-E=       -0.000037752036 Rises=F Damp=F
 DIIS: error= 2.66D-04 at cycle   3 NSaved=   3.
 NSaved= 3 IEnMin= 3 EnMin= -591.172221187141     IErMin= 3 ErrMin= 2.66D-04
 ErrMax= 2.66D-04  0.00D+00 EMaxC= 1.00D-01 BMatC= 2.15D-06 BMatP= 1.59D-05
 IDIUse=3 WtCom= 9.97D-01 WtEn= 2.66D-03
 Coeff-Com: -0.434D-01 0.238D-02 0.104D+01
 Coeff-En:   0.000D+00 0.000D+00 0.100D+01
 Coeff:     -0.433D-01 0.238D-02 0.104D+01
 Gap=     0.716 Goal=   None    Shift=    0.000
 RMSDP=1.79D-04 MaxDP=1.11D-03 DE=-3.78D-05 OVMax= 0.00D+00

 Cycle   4  Pass 1  IDiag  1:
 E= -591.172227412609     Delta-E=       -0.000006225468 Rises=F Damp=F
 DIIS: error= 1.10D-04 at cycle   4 NSaved=   4.
 NSaved= 4 IEnMin= 4 EnMin= -591.172227412609     IErMin= 4 ErrMin= 1.10D-04
 ErrMax= 1.10D-04  0.00D+00 EMaxC= 1.00D-01 BMatC= 2.32D-07 BMatP= 2.15D-06
 IDIUse=3 WtCom= 9.99D-01 WtEn= 1.10D-03
 Coeff-Com:  0.103D-01-0.108D+00-0.204D+00 0.130D+01
 Coeff-En:   0.000D+00 0.000D+00 0.000D+00 0.100D+01
 Coeff:      0.103D-01-0.107D+00-0.204D+00 0.130D+01
 Gap=     0.716 Goal=   None    Shift=    0.000
 RMSDP=9.05D-05 MaxDP=4.88D-04 DE=-6.23D-06 OVMax= 0.00D+00

 Cycle   5  Pass 1  IDiag  1:
 E= -591.172228316027     Delta-E=       -0.000000903418 Rises=F Damp=F
 DIIS: error= 1.22D-05 at cycle   5 NSaved=   5.
 NSaved= 5 IEnMin= 5 EnMin= -591.172228316027     IErMin= 5 ErrMin= 1.22D-05
 ErrMax= 1.22D-05  0.00D+00 EMaxC= 1.00D-01 BMatC= 6.27D-09 BMatP= 2.32D-07
 IDIUse=1 WtCom= 1.00D+00 WtEn= 0.00D+00
 Coeff-Com: -0.197D-02 0.358D-01 0.317D-01-0.437D+00 0.137D+01
 Coeff:     -0.197D-02 0.358D-01 0.317D-01-0.437D+00 0.137D+01
 Gap=     0.716 Goal=   None    Shift=    0.000
 RMSDP=1.40D-05 MaxDP=7.59D-05 DE=-9.03D-07 OVMax= 0.00D+00

 Cycle   6  Pass 1  IDiag  1:
 E= -591.172228338231     Delta-E=       -0.000000022203 Rises=F Damp=F
 DIIS: error= 3.33D-06 at cycle   6 NSaved=   6.
 NSaved= 6 IEnMin= 6 EnMin= -591.172228338231     IErMin= 6 ErrMin= 3.33D-06
 ErrMax= 3.33D-06  0.00D+00 EMaxC= 1.00D-01 BMatC= 1.95D-10 BMatP= 6.27D-09
 IDIUse=1 WtCom= 1.00D+00 WtEn= 0.00D+00
 Coeff-Com:  0.604D-03-0.123D-01-0.765D-02 0.148D+00-0.556D+00 0.143D+01
 Coeff:      0.604D-03-0.123D-01-0.765D-02 0.148D+00-0.556D+00 0.143D+01
 Gap=     0.716 Goal=   None    Shift=    0.000
 RMSDP=1.93D-06 MaxDP=1.35D-05 DE=-2.22D-08 OVMax= 0.00D+00

 Cycle   7  Pass 1  IDiag  1:
 E= -591.172228338901     Delta-E=       -0.000000000671 Rises=F Damp=F
 DIIS: error= 8.60D-07 at cycle   7 NSaved=   7.
 NSaved= 7 IEnMin= 7 EnMin= -591.172228338901     IErMin= 7 ErrMin= 8.60D-07
 ErrMax= 8.60D-07  0.00D+00 EMaxC= 1.00D-01 BMatC= 1.09D-11 BMatP= 1.95D-10
 IDIUse=1 WtCom= 1.00D+00 WtEn= 0.00D+00
 Coeff-Com: -0.534D-04 0.146D-02 0.110D-03-0.170D-01 0.823D-01-0.445D+00
 Coeff-Com:  0.138D+01
 Coeff:     -0.534D-04 0.146D-02 0.110D-03-0.170D-01 0.823D-01-0.445D+00
 Coeff:      0.138D+01
 Gap=     0.716 Goal=   None    Shift=    0.000
 RMSDP=5.47D-07 MaxDP=3.93D-06 DE=-6.71D-10 OVMax= 0.00D+00

 Cycle   8  Pass 1  IDiag  1:
 E= -591.172228338942     Delta-E=       -0.000000000041 Rises=F Damp=F
 DIIS: error= 1.08D-07 at cycle   8 NSaved=   8.
 NSaved= 8 IEnMin= 8 EnMin= -591.172228338942     IErMin= 8 ErrMin= 1.08D-07
 ErrMax= 1.08D-07  0.00D+00 EMaxC= 1.00D-01 BMatC= 3.76D-13 BMatP= 1.09D-11
 IDIUse=1 WtCom= 1.00D+00 WtEn= 0.00D+00
 Coeff-Com:  0.565D-05-0.315D-03 0.179D-03 0.364D-02-0.226D-01 0.168D+00
 Coeff-Com: -0.656D+00 0.151D+01
 Coeff:      0.565D-05-0.315D-03 0.179D-03 0.364D-02-0.226D-01 0.168D+00
 Coeff:     -0.656D+00 0.151D+01
 Gap=     0.716 Goal=   None    Shift=    0.000
 RMSDP=1.18D-07 MaxDP=7.00D-07 DE=-4.06D-11 OVMax= 0.00D+00

 Cycle   9  Pass 1  IDiag  1:
 E= -591.172228338944     Delta-E=       -0.000000000002 Rises=F Damp=F
 DIIS: error= 2.11D-08 at cycle   9 NSaved=   9.
 NSaved= 9 IEnMin= 9 EnMin= -591.172228338944     IErMin= 9 ErrMin= 2.11D-08
 ErrMax= 2.11D-08  0.00D+00 EMaxC= 1.00D-01 BMatC= 1.07D-14 BMatP= 3.76D-13
 IDIUse=1 WtCom= 1.00D+00 WtEn= 0.00D+00
 Coeff-Com:  0.445D-07 0.908D-04-0.106D-03-0.102D-02 0.758D-02-0.634D-01
 Coeff-Com:  0.260D+00-0.695D+00 0.149D+01
 Coeff:      0.445D-07 0.908D-04-0.106D-03-0.102D-02 0.758D-02-0.634D-01
 Coeff:      0.260D+00-0.695D+00 0.149D+01
 Gap=     0.716 Goal=   None    Shift=    0.000
 RMSDP=2.16D-08 MaxDP=1.31D-07 DE=-1.59D-12 OVMax= 0.00D+00

 Cycle  10  Pass 1  IDiag  1:
 E= -591.172228338944     Delta-E=       -0.000000000000 Rises=F Damp=F
 DIIS: error= 2.51D-09 at cycle  10 NSaved=  10.
 NSaved=10 IEnMin=10 EnMin= -591.172228338944     IErMin=10 ErrMin= 2.51D-09
 ErrMax= 2.51D-09  0.00D+00 EMaxC= 1.00D-01 BMatC= 1.68D-16 BMatP= 1.07D-14
 IDIUse=1 WtCom= 1.00D+00 WtEn= 0.00D+00
 Coeff-Com: -0.142D-07-0.182D-04 0.228D-04 0.203D-03-0.153D-02 0.129D-01
 Coeff-Com: -0.532D-01 0.148D+00-0.403D+00 0.130D+01
 Coeff:     -0.142D-07-0.182D-04 0.228D-04 0.203D-03-0.153D-02 0.129D-01
 Coeff:     -0.532D-01 0.148D+00-0.403D+00 0.130D+01
 Gap=     0.716 Goal=   None    Shift=    0.000
 RMSDP=2.33D-09 MaxDP=1.34D-08 DE=-4.55D-13 OVMax= 0.00D+00

 SCF Done:  E(RHF) =  -591.172228339     A.U. after   10 cycles
            NFock= 10  Conv=0.23D-08     -V/T= 2.0166
 KE= 5.815126263045D+02 PE=-1.598398408142D+03 EE= 3.267084593474D+02
 Leave Link  502 at Sat Sep 12 17:07:23 2026, MaxMem=   536870912 cpu:               0.1 elap:               0.1
 (Enter /app1/ia32-64/Gaussian/Rev-C.02/g16/l701.exe)
 ... and contract with generalized density number  0.
 Compute integral first derivatives.
 Leave Link  701 at Sat Sep 12 17:07:23 2026, MaxMem=   536870912 cpu:               0.0 elap:               0.1
 (Enter /app1/ia32-64/Gaussian/Rev-C.02/g16/l702.exe)
 L702 exits ... SP integral derivatives will be done elsewhere.
 Leave Link  702 at Sat Sep 12 17:07:23 2026, MaxMem=   536870912 cpu:               0.0 elap:               0.0
 (Enter /app1/ia32-64/Gaussian/Rev-C.02/g16/l703.exe)
 Integral derivatives from FoFJK, PRISM(SPDF).
 Compute integral first derivatives, UseDBF=F ICtDFT=           0.
 Calling FoFJK, ICntrl=      2127 FMM=F ISym2X=1 I1Cent= 0 IOpClX= 0 NMat=1 NMatS=1 NMatT=0.
 FoFJK:  IHMeth= 1 ICntrl=    2127 DoSepK=F KAlg= 0 I1Cent=           0 FoldK=F
 IRaf=         0 NMat=       1 IRICut=       1 DoRegI=T DoRafI=F ISym2E= 1 IDoP0=0 IntGTp=1.
 FoFCou: FMM=F IPFlag=           0 FMFlag=      100000 FMFlg1=         800
         NFxFlg=           0 DoJE=F BraDBF=F KetDBF=F FulRan=T
         wScrn=  0.000000 ICntrl=      2127 IOpCl=  0 I1Cent=           0 NGrid=           0
         NMat0=    1 NMatS0=      1 NMatT0=    0 NMatD0=    1 NMtDS0=    0 NMtDT0=    0
 Petite list used in FoFCou.
 Leave Link  703 at Sat Sep 12 17:07:24 2026, MaxMem=   536870912 cpu:               0.1 elap:               0.1
 (Enter /app1/ia32-64/Gaussian/Rev-C.02/g16/l716.exe)
 Dipole        =-6.86496282D-02 8.77434629D-01-4.44089210D-16
 ***** Axes restored to original set *****
 -------------------------------------------------------------------
 Center     Atomic                   Forces (Hartrees/Bohr)
 Number     Number              X              Y              Z
 -------------------------------------------------------------------
      1        6          -0.004806180   -0.000000000    0.004885854
      2        9           0.002189511   -0.000000000   -0.007122026
      3       17          -0.004127242    0.000000000    0.001870022
      4        1           0.003371956    0.001716064    0.000183075
      5        1           0.003371956   -0.001716064    0.000183075
 -------------------------------------------------------------------
 Cartesian Forces:  Max     0.007122026 RMS     0.003180317
 Leave Link  716 at Sat Sep 12 17:07:24 2026, MaxMem=   536870912 cpu:               0.0 elap:               0.0
 (Enter /app1/ia32-64/Gaussian/Rev-C.02/g16/l103.exe)

 GradGradGradGradGradGradGradGradGradGradGradGradGradGradGradGradGradGrad
 Berny optimization.
 Using GEDIIS/GDIIS optimizer.
 FormGI is forming the generalized inverse of G from B-inverse, IUseBI=4.
 Internal  Forces:  Max     0.007129919 RMS     0.002735720
 Search for a local minimum.
 Step number   2 out of a maximum of   24
 All quantities printed in internal units (Hartrees-Bohrs-Radians)
 RMS Force = .27357D-02 SwitMx=.10000D-02 MixMth= 1
 Mixed Optimization -- RFO/linear search
 Update second derivatives using D2CorX and points    1    2
 DE= -1.97D-03 DEPred=-2.34D-03 R= 8.45D-01
 TightC=F SS=  1.41D+00  RLast= 1.36D-01 DXNew= 5.0454D-01 4.0949D-01
 Trust test= 8.45D-01 RLast= 1.36D-01 DXMaxT set to 4.09D-01
 The second derivative matrix:
                          R1        R2        R3        R4        A1
           R1           0.48589
           R2           0.05090   0.33058
           R3           0.01565   0.02494   0.35951
           R4           0.01565   0.02494   0.01138   0.35951
           A1           0.00600  -0.01010  -0.00209  -0.00209   0.24743
           A2           0.00190  -0.01607  -0.00488  -0.00488  -0.00197
           A3           0.00191  -0.01579  -0.00479  -0.00479  -0.00195
           A4          -0.00498   0.02174   0.00611   0.00611   0.00334
           A5          -0.00528   0.01598   0.00416   0.00416   0.00290
           A6           0.00198  -0.00511  -0.00127  -0.00127  -0.00101
           D1          -0.00103  -0.01881  -0.00638  -0.00638  -0.00141
           D2           0.00085   0.01553   0.00527   0.00527   0.00116
           D3           0.00009   0.00363   0.00121   0.00121   0.00030
           D4          -0.00076  -0.01190  -0.00406  -0.00406  -0.00086
                          A2        A3        A4        A5        A6
           A2           0.15931
           A3          -0.00069   0.15931
           A4           0.00170   0.00170   0.15656
           A5           0.00177   0.00176  -0.00329   0.15698
           A6          -0.00066  -0.00065   0.00119   0.00107   0.15962
           D1           0.00023   0.00021   0.00046   0.00087  -0.00037
           D2          -0.00020  -0.00018  -0.00038  -0.00071   0.00031
           D3          -0.00001  -0.00001  -0.00014  -0.00021   0.00008
           D4           0.00018   0.00017   0.00024   0.00051  -0.00022
                          D1        D2        D3        D4
           D1           0.00367
           D2          -0.00110   0.00326
           D3          -0.00022   0.00018   0.00238
           D4           0.00087  -0.00072  -0.00015   0.00292
 ITU=  1  0
 Use linear search instead of GDIIS.
     Eigenvalues ---    0.05336   0.07019   0.08982   0.15867   0.16650
     Eigenvalues ---    0.30502   0.34813   0.37690   0.50874
 RFO step:  Lambda=-3.18979049D-04 EMin= 5.33629313D-02
 Quartic linear search produced a step of -0.10063.
 Iteration  1 RMS(Cart)=  0.01045424 RMS(Int)=  0.00019592
 Iteration  2 RMS(Cart)=  0.00013821 RMS(Int)=  0.00014081
 Iteration  3 RMS(Cart)=  0.00000001 RMS(Int)=  0.00014081
 ITry= 1 IFail=0 DXMaxC= 2.25D-02 DCOld= 1.00D+10 DXMaxT= 4.09D-01 DXLimC= 3.00D+00 Rises=F
 ClnCor:  largest displacement from symmetrization is 1.13D-03 for atom     5.
 Variable       Old X    -DE/DX   Delta X   Delta X   Delta X     New X
                                 (Linear)    (Quad)   (Total)
    R1        2.59735  -0.00713   0.00105  -0.01477  -0.01372   2.58363
    R2        3.45685  -0.00452  -0.01127   0.00387  -0.00741   3.44944
    R3        2.08702  -0.00300  -0.00274  -0.00334  -0.00608   2.08093
    R4        2.08702  -0.00300  -0.00274  -0.00334  -0.00608   2.08093
    A1        1.93711  -0.00076  -0.00174  -0.00979  -0.01145   1.92566
    A2        1.93116   0.00014  -0.00114   0.01269   0.01136   1.94252
    A3        1.93116   0.00123  -0.00114   0.01331   0.01136   1.94252
    A4        1.87608  -0.00078   0.00254  -0.01674  -0.01418   1.86189
    A5        1.87608  -0.00149   0.00254  -0.01732  -0.01418   1.86189
    A6        1.91058   0.00158  -0.00093   0.01652   0.01540   1.92598
    D1       -2.11772   0.00134   0.00122   0.01499   0.01625  -2.10147
    D2        2.11772  -0.00113  -0.00122  -0.01499  -0.01625   2.10147
    D3       -2.13278  -0.00204   0.00273  -0.03565  -0.03288  -2.16567
    D4        2.03268  -0.00091   0.00395  -0.02067  -0.01663   2.01605
         Item               Value     Threshold  Converged?
 Maximum Force            0.007130     0.000015     NO 
 RMS     Force            0.002736     0.000010     NO 
 Maximum Displacement     0.022529     0.000060     NO 
 RMS     Displacement     0.010379     0.000040     NO 
 Predicted change in Energy=-1.901522D-04
 Lowest energy point so far.  Saving SCF results.
 GradGradGradGradGradGradGradGradGradGradGradGradGradGradGradGradGradGrad

 Leave Link  103 at Sat Sep 12 17:07:24 2026, MaxMem=   536870912 cpu:               0.0 elap:               0.0
 (Enter /app1/ia32-64/Gaussian/Rev-C.02/g16/l202.exe)
                          Input orientation:                          
 ---------------------------------------------------------------------
 Center     Atomic      Atomic             Coordinates (Angstroms)
 Number     Number       Type             X           Y           Z
 ---------------------------------------------------------------------
      1          6           0       -0.020513    0.000000    0.020502
      2          9           0       -0.010410   -0.000000    1.387662
      3         17           0        1.686389   -0.000000   -0.626376
      4          1           0       -0.508710   -0.903963   -0.375874
      5          1           0       -0.508710    0.903963   -0.375874
 ---------------------------------------------------------------------
                    Distance matrix (angstroms):
                    1          2          3          4          5
     1  C    0.000000
     2  F    1.367197   0.000000
     3  Cl   1.825367   2.633529   0.000000
     4  H    1.101181   2.043407   2.387124   0.000000
     5  H    1.101181   2.043407   2.387124   1.807926   0.000000
 Stoichiometry    CH2ClF
 Framework group  CS[SG(CClF),X(H2)]
 Deg. of freedom     6
 Full point group                 CS      NOp   2
 RotChk:  IX=0 Diff= 2.10D-03
 Largest Abelian subgroup         CS      NOp   2
 Largest concise Abelian subgroup CS      NOp   2
                         Standard orientation:                         
 ---------------------------------------------------------------------
 Center     Atomic      Atomic             Coordinates (Angstroms)
 Number     Number       Type             X           Y           Z
 ---------------------------------------------------------------------
      1          6           0        0.000000    0.827546    0.000000
      2          9           0        1.366746    0.792433    0.000000
      3         17           0       -0.677997   -0.867235   -0.000000
      4          1           0       -0.387379    1.322913    0.903963
      5          1           0       -0.387379    1.322913   -0.903963
 ---------------------------------------------------------------------
 Rotational constants (GHZ):          41.0054406           5.4533153           4.9691053
 Leave Link  202 at Sat Sep 12 17:07:24 2026, MaxMem=   536870912 cpu:               0.0 elap:               0.0
 (Enter /app1/ia32-64/Gaussian/Rev-C.02/g16/l301.exe)
 Standard basis: STO-3G (5D, 7F)
 Ernie: Thresh=  0.10000D-02 Tol=  0.10000D-05 Strict=F.
 There are    16 symmetry adapted cartesian basis functions of A'  symmetry.
 There are     5 symmetry adapted cartesian basis functions of A"  symmetry.
 There are    16 symmetry adapted basis functions of A'  symmetry.
 There are     5 symmetry adapted basis functions of A"  symmetry.
    21 basis functions,    63 primitive gaussians,    21 cartesian basis functions
    17 alpha electrons       17 beta electrons
       nuclear repulsion energy        99.4723018287 Hartrees.
 IExCor=    0 DFT=F Ex=HF Corr=None ExCW=0 ScaHFX=  1.000000
 ScaDFX=  1.000000  1.000000  1.000000  1.000000 ScalE2=  1.000000  1.000000
 IRadAn=      5 IRanWt=     -1 IRanGd=            0 ICorTp=0 IEmpDi=  4
 NAtoms=    5 NActive=    5 NUniq=    4 SFac= 1.56D+00 NAtFMM=   60 NAOKFM=F Big=F
 Integral buffers will be    131072 words long.
 Raffenetti 1 integral format.
 Two-electron integral symmetry is turned on.
 Leave Link  301 at Sat Sep 12 17:07:24 2026, MaxMem=   536870912 cpu:               0.0 elap:               0.0
 (Enter /app1/ia32-64/Gaussian/Rev-C.02/g16/l302.exe)
 NPDir=0 NMtPBC=     1 NCelOv=     1 NCel=       1 NClECP=     1 NCelD=      1
         NCelK=      1 NCelE2=     1 NClLst=     1 CellRange=     0.0.
 One-electron integrals computed using PRISM.
 One-electron integral symmetry used in STVInt
 NBasis=    21 RedAO= T EigKep=  2.60D-01  NBF=    16     5
 NBsUse=    21 1.00D-06 EigRej= -1.00D+00 NBFU=    16     5
 Leave Link  302 at Sat Sep 12 17:07:24 2026, MaxMem=   536870912 cpu:               0.1 elap:               0.1
 (Enter /app1/ia32-64/Gaussian/Rev-C.02/g16/l303.exe)
 DipDrv:  MaxL=1.
 Leave Link  303 at Sat Sep 12 17:07:24 2026, MaxMem=   536870912 cpu:               0.0 elap:               0.0
 (Enter /app1/ia32-64/Gaussian/Rev-C.02/g16/l401.exe)
 Initial guess from the checkpoint file:  "ch2fcl_hf_sto3g.chk"
 B after Tr=    -0.000000    0.000000    0.000000
         Rot=    1.000000   -0.000000   -0.000000    0.000332 Ang=   0.04 deg.
 Guess basis will be translated and rotated to current coordinates.
 JPrj=2 DoOrth=T DoCkMO=T.
 Initial guess orbital symmetries:
       Occupied  (A') (A') (A') (A') (A') (A') (A") (A') (A') (A')
                 (A") (A') (A') (A") (A') (A') (A")
       Virtual   (A') (A') (A") (A')
 The electronic state of the initial guess is 1-A'.
 Generating alternative initial guess.
 ExpMin= 1.69D-01 ExpMax= 6.01D+02 ExpMxC= 6.01D+02 IAcc=3 IRadAn=         5 AccDes= 0.00D+00
 Harris functional with IExCor=  205 and IRadAn=       5 diagonalized for initial guess.
 HarFok:  IExCor=  205 AccDes= 0.00D+00 IRadAn=         5 IDoV= 1 UseB2=F ITyADJ=14
 ICtDFT=  3500011 ScaDFX=  1.000000  1.000000  1.000000  1.000000
 FoFCou: FMM=F IPFlag=           0 FMFlag=      100000 FMFlg1=           0
         NFxFlg=           0 DoJE=T BraDBF=F KetDBF=T FulRan=T
         wScrn=  0.000000 ICntrl=       500 IOpCl=  0 I1Cent=   200000004 NGrid=           0
         NMat0=    1 NMatS0=      1 NMatT0=    0 NMatD0=    1 NMtDS0=    0 NMtDT0=    0
 Petite list used in FoFCou.
 Harris En= -590.578908930022    
 Leave Link  401 at Sat Sep 12 17:07:24 2026, MaxMem=   536870912 cpu:               0.1 elap:               0.1
 (Enter /app1/ia32-64/Gaussian/Rev-C.02/g16/l502.exe)
 Keep R1 ints in memory in symmetry-blocked form, NReq=834769.
 FoFCou: FMM=F IPFlag=           0 FMFlag=           0 FMFlg1=           0
         NFxFlg=           0 DoJE=F BraDBF=F KetDBF=F FulRan=T
         wScrn=  0.000000 ICntrl=       600 IOpCl=  0 I1Cent=           0 NGrid=           0
         NMat0=    1 NMatS0=    231 NMatT0=    0 NMatD0=    1 NMtDS0=    0 NMtDT0=    0
 Petite list used in FoFCou.
 Closed shell SCF:
 Using DIIS extrapolation, IDIIS=  1040.
 NGot=   536870912 LenX=   536853818 LenY=   536852936
 Requested convergence on RMS density matrix=1.00D-08 within 128 cycles.
 Requested convergence on MAX density matrix=1.00D-06.
 Requested convergence on             energy=1.00D-06.
 No special actions if energy rises.

 Cycle   1  Pass 1  IDiag  1:
 E= -591.172313663287    
 DIIS: error= 1.05D-03 at cycle   1 NSaved=   1.
 NSaved= 1 IEnMin= 1 EnMin= -591.172313663287     IErMin= 1 ErrMin= 1.05D-03
 ErrMax= 1.05D-03  0.00D+00 EMaxC= 1.00D-01 BMatC= 3.26D-05 BMatP= 3.26D-05
 IDIUse=3 WtCom= 9.90D-01 WtEn= 1.05D-02
 Coeff-Com:  0.100D+01
 Coeff-En:   0.100D+01
 Coeff:      0.100D+01
 Gap=     0.719 Goal=   None    Shift=    0.000
 GapD=    0.719 DampG=2.000 DampE=1.000 DampFc=2.0000 IDamp=-1.
 RMSDP=4.49D-04 MaxDP=2.62D-03              OVMax= 0.00D+00

 Cycle   2  Pass 1  IDiag  1:
 E= -591.172374803581     Delta-E=       -0.000061140293 Rises=F Damp=F
 DIIS: error= 3.67D-04 at cycle   2 NSaved=   2.
 NSaved= 2 IEnMin= 2 EnMin= -591.172374803581     IErMin= 2 ErrMin= 3.67D-04
 ErrMax= 3.67D-04  0.00D+00 EMaxC= 1.00D-01 BMatC= 3.73D-06 BMatP= 3.26D-05
 IDIUse=3 WtCom= 9.96D-01 WtEn= 3.67D-03
 Coeff-Com: -0.312D+00 0.131D+01
 Coeff-En:   0.000D+00 0.100D+01
 Coeff:     -0.311D+00 0.131D+01
 Gap=     0.719 Goal=   None    Shift=    0.000
 RMSDP=2.28D-04 MaxDP=1.65D-03 DE=-6.11D-05 OVMax= 0.00D+00

 Cycle   3  Pass 1  IDiag  1:
 E= -591.172385854662     Delta-E=       -0.000011051082 Rises=F Damp=F
 DIIS: error= 1.43D-04 at cycle   3 NSaved=   3.
 NSaved= 3 IEnMin= 3 EnMin= -591.172385854662     IErMin= 3 ErrMin= 1.43D-04
 ErrMax= 1.43D-04  0.00D+00 EMaxC= 1.00D-01 BMatC= 3.50D-07 BMatP= 3.73D-06
 IDIUse=3 WtCom= 9.99D-01 WtEn= 1.43D-03
 Coeff-Com:  0.469D-01-0.454D+00 0.141D+01
 Coeff-En:   0.000D+00 0.000D+00 0.100D+01
 Coeff:      0.469D-01-0.454D+00 0.141D+01
 Gap=     0.719 Goal=   None    Shift=    0.000
 RMSDP=8.98D-05 MaxDP=7.16D-04 DE=-1.11D-05 OVMax= 0.00D+00

 Cycle   4  Pass 1  IDiag  1:
 E= -591.172387095587     Delta-E=       -0.000001240924 Rises=F Damp=F
 DIIS: error= 2.81D-05 at cycle   4 NSaved=   4.
 NSaved= 4 IEnMin= 4 EnMin= -591.172387095587     IErMin= 4 ErrMin= 2.81D-05
 ErrMax= 2.81D-05  0.00D+00 EMaxC= 1.00D-01 BMatC= 2.04D-08 BMatP= 3.50D-07
 IDIUse=1 WtCom= 1.00D+00 WtEn= 0.00D+00
 Coeff-Com:  0.164D-01-0.422D-01-0.149D+00 0.117D+01
 Coeff:      0.164D-01-0.422D-01-0.149D+00 0.117D+01
 Gap=     0.719 Goal=   None    Shift=    0.000
 RMSDP=2.02D-05 MaxDP=1.56D-04 DE=-1.24D-06 OVMax= 0.00D+00

 Cycle   5  Pass 1  IDiag  1:
 E= -591.172387159494     Delta-E=       -0.000000063907 Rises=F Damp=F
 DIIS: error= 6.17D-06 at cycle   5 NSaved=   5.
 NSaved= 5 IEnMin= 5 EnMin= -591.172387159494     IErMin= 5 ErrMin= 6.17D-06
 ErrMax= 6.17D-06  0.00D+00 EMaxC= 1.00D-01 BMatC= 1.34D-09 BMatP= 2.04D-08
 IDIUse=1 WtCom= 1.00D+00 WtEn= 0.00D+00
 Coeff-Com: -0.427D-02 0.404D-01-0.128D+00 0.278D-01 0.106D+01
 Coeff:     -0.427D-02 0.404D-01-0.128D+00 0.278D-01 0.106D+01
 Gap=     0.719 Goal=   None    Shift=    0.000
 RMSDP=4.83D-06 MaxDP=3.29D-05 DE=-6.39D-08 OVMax= 0.00D+00

 Cycle   6  Pass 1  IDiag  1:
 E= -591.172387163294     Delta-E=       -0.000000003799 Rises=F Damp=F
 DIIS: error= 1.57D-06 at cycle   6 NSaved=   6.
 NSaved= 6 IEnMin= 6 EnMin= -591.172387163294     IErMin= 6 ErrMin= 1.57D-06
 ErrMax= 1.57D-06  0.00D+00 EMaxC= 1.00D-01 BMatC= 6.61D-11 BMatP= 1.34D-09
 IDIUse=1 WtCom= 1.00D+00 WtEn= 0.00D+00
 Coeff-Com:  0.128D-02-0.164D-01 0.635D-01-0.593D-01-0.492D+00 0.150D+01
 Coeff:      0.128D-02-0.164D-01 0.635D-01-0.593D-01-0.492D+00 0.150D+01
 Gap=     0.719 Goal=   None    Shift=    0.000
 RMSDP=1.49D-06 MaxDP=7.64D-06 DE=-3.80D-09 OVMax= 0.00D+00

 Cycle   7  Pass 1  IDiag  1:
 E= -591.172387163549     Delta-E=       -0.000000000256 Rises=F Damp=F
 DIIS: error= 1.93D-07 at cycle   7 NSaved=   7.
 NSaved= 7 IEnMin= 7 EnMin= -591.172387163549     IErMin= 7 ErrMin= 1.93D-07
 ErrMax= 1.93D-07  0.00D+00 EMaxC= 1.00D-01 BMatC= 9.26D-13 BMatP= 6.61D-11
 IDIUse=1 WtCom= 1.00D+00 WtEn= 0.00D+00
 Coeff-Com: -0.232D-03 0.321D-02-0.129D-01 0.140D-01 0.955D-01-0.360D+00
 Coeff-Com:  0.126D+01
 Coeff:     -0.232D-03 0.321D-02-0.129D-01 0.140D-01 0.955D-01-0.360D+00
 Coeff:      0.126D+01
 Gap=     0.719 Goal=   None    Shift=    0.000
 RMSDP=1.81D-07 MaxDP=1.22D-06 DE=-2.56D-10 OVMax= 0.00D+00

 Cycle   8  Pass 1  IDiag  1:
 E= -591.172387163553     Delta-E=       -0.000000000004 Rises=F Damp=F
 DIIS: error= 4.44D-08 at cycle   8 NSaved=   8.
 NSaved= 8 IEnMin= 8 EnMin= -591.172387163553     IErMin= 8 ErrMin= 4.44D-08
 ErrMax= 4.44D-08  0.00D+00 EMaxC= 1.00D-01 BMatC= 4.79D-14 BMatP= 9.26D-13
 IDIUse=1 WtCom= 1.00D+00 WtEn= 0.00D+00
 Coeff-Com:  0.322D-04-0.517D-03 0.218D-02-0.265D-02-0.163D-01 0.731D-01
 Coeff-Com: -0.462D+00 0.141D+01
 Coeff:      0.322D-04-0.517D-03 0.218D-02-0.265D-02-0.163D-01 0.731D-01
 Coeff:     -0.462D+00 0.141D+01
 Gap=     0.719 Goal=   None    Shift=    0.000
 RMSDP=4.53D-08 MaxDP=3.06D-07 DE=-3.87D-12 OVMax= 0.00D+00

 Cycle   9  Pass 1  IDiag  1:
 E= -591.172387163554     Delta-E=       -0.000000000001 Rises=F Damp=F
 DIIS: error= 5.71D-09 at cycle   9 NSaved=   9.
 NSaved= 9 IEnMin= 9 EnMin= -591.172387163554     IErMin= 9 ErrMin= 5.71D-09
 ErrMax= 5.71D-09  0.00D+00 EMaxC= 1.00D-01 BMatC= 9.04D-16 BMatP= 4.79D-14
 IDIUse=1 WtCom= 1.00D+00 WtEn= 0.00D+00
 Coeff-Com: -0.447D-05 0.934D-04-0.422D-03 0.558D-03 0.322D-02-0.163D-01
 Coeff-Com:  0.130D+00-0.480D+00 0.136D+01
 Coeff:     -0.447D-05 0.934D-04-0.422D-03 0.558D-03 0.322D-02-0.163D-01
 Coeff:      0.130D+00-0.480D+00 0.136D+01
 Gap=     0.719 Goal=   None    Shift=    0.000
 RMSDP=5.44D-09 MaxDP=3.01D-08 DE=-6.82D-13 OVMax= 0.00D+00

 SCF Done:  E(RHF) =  -591.172387164     A.U. after    9 cycles
            NFock=  9  Conv=0.54D-08     -V/T= 2.0166
 KE= 5.815325344443D+02 PE=-1.599336187437D+03 EE= 3.271589640006D+02
 Leave Link  502 at Sat Sep 12 17:07:24 2026, MaxMem=   536870912 cpu:               0.0 elap:               0.1
 (Enter /app1/ia32-64/Gaussian/Rev-C.02/g16/l701.exe)
 ... and contract with generalized density number  0.
 Compute integral first derivatives.
 Leave Link  701 at Sat Sep 12 17:07:24 2026, MaxMem=   536870912 cpu:               0.1 elap:               0.1
 (Enter /app1/ia32-64/Gaussian/Rev-C.02/g16/l702.exe)
 L702 exits ... SP integral derivatives will be done elsewhere.
 Leave Link  702 at Sat Sep 12 17:07:24 2026, MaxMem=   536870912 cpu:               0.0 elap:               0.0
 (Enter /app1/ia32-64/Gaussian/Rev-C.02/g16/l703.exe)
 Integral derivatives from FoFJK, PRISM(SPDF).
 Compute integral first derivatives, UseDBF=F ICtDFT=           0.
 Calling FoFJK, ICntrl=      2127 FMM=F ISym2X=1 I1Cent= 0 IOpClX= 0 NMat=1 NMatS=1 NMatT=0.
 FoFJK:  IHMeth= 1 ICntrl=    2127 DoSepK=F KAlg= 0 I1Cent=           0 FoldK=F
 IRaf=         0 NMat=       1 IRICut=       1 DoRegI=T DoRafI=F ISym2E= 1 IDoP0=0 IntGTp=1.
 FoFCou: FMM=F IPFlag=           0 FMFlag=      100000 FMFlg1=         800
         NFxFlg=           0 DoJE=F BraDBF=F KetDBF=F FulRan=T
         wScrn=  0.000000 ICntrl=      2127 IOpCl=  0 I1Cent=           0 NGrid=           0
         NMat0=    1 NMatS0=      1 NMatT0=    0 NMatD0=    1 NMtDS0=    0 NMtDT0=    0
 Petite list used in FoFCou.
 Leave Link  703 at Sat Sep 12 17:07:25 2026, MaxMem=   536870912 cpu:               0.1 elap:               0.1
 (Enter /app1/ia32-64/Gaussian/Rev-C.02/g16/l716.exe)
 Dipole        =-6.54114340D-02 8.86826565D-01-4.44089210D-16
 ***** Axes restored to original set *****
 -------------------------------------------------------------------
 Center     Atomic                   Forces (Hartrees/Bohr)
 Number     Number              X              Y              Z
 -------------------------------------------------------------------
      1        6           0.000781757   -0.000000000   -0.000404704
      2        9          -0.000512004    0.000000000    0.000286041
      3       17           0.000485868   -0.000000000   -0.000300550
      4        1          -0.000377811    0.000595653    0.000209606
      5        1          -0.000377811   -0.000595653    0.000209606
 -------------------------------------------------------------------
 Cartesian Forces:  Max     0.000781757 RMS     0.000410549
 Leave Link  716 at Sat Sep 12 17:07:25 2026, MaxMem=   536870912 cpu:               0.0 elap:               0.0
 (Enter /app1/ia32-64/Gaussian/Rev-C.02/g16/l103.exe)

 GradGradGradGradGradGradGradGradGradGradGradGradGradGradGradGradGradGrad
 Berny optimization.
 Using GEDIIS/GDIIS optimizer.
 FormGI is forming the generalized inverse of G from B-inverse, IUseBI=4.
 Internal  Forces:  Max     0.000618228 RMS     0.000360854
 Search for a local minimum.
 Step number   3 out of a maximum of   24
 All quantities printed in internal units (Hartrees-Bohrs-Radians)
 RMS Force = .36085D-03 SwitMx=.10000D-02 MixMth= 2
 Mixed Optimization -- En-DIIS/RFO-DIIS
 Update second derivatives using D2CorX and points    1    2    3
 DE= -1.59D-04 DEPred=-1.90D-04 R= 8.35D-01
 TightC=F SS=  1.41D+00  RLast= 5.69D-02 DXNew= 6.8868D-01 1.7055D-01
 Trust test= 8.35D-01 RLast= 5.69D-02 DXMaxT set to 4.09D-01
 The second derivative matrix:
                          R1        R2        R3        R4        A1
           R1           0.47215
           R2           0.05238   0.33007
           R3           0.00133   0.02191   0.35294
           R4           0.00133   0.02191   0.00482   0.35294
           A1          -0.04148  -0.02083  -0.01682  -0.01682   0.22431
           A2           0.04267  -0.00660   0.00693   0.00693   0.01464
           A3           0.01719  -0.01312   0.00157   0.00157   0.01210
           A4          -0.03663   0.01516  -0.00455  -0.00455  -0.01571
           A5          -0.01951   0.01408  -0.00274  -0.00274  -0.01432
           A6           0.01360  -0.00395   0.00529   0.00529   0.01678
           D1          -0.02798  -0.02591  -0.01198  -0.01198  -0.00359
           D2           0.02362   0.02153   0.00999   0.00999   0.00297
           D3           0.04535   0.01574   0.01075   0.01075   0.00427
           D4           0.02173  -0.00579   0.00076   0.00076   0.00129
                          A2        A3        A4        A5        A6
           A2           0.14789
           A3          -0.01187   0.15297
           A4           0.01599   0.01207   0.14152
           A5           0.01583   0.00880  -0.01560   0.14948
           A6          -0.01542  -0.00743   0.01363   0.00805   0.15333
           D1           0.00003   0.00519  -0.00335  -0.00644   0.00800
           D2           0.00001  -0.00437   0.00282   0.00545  -0.00676
           D3           0.00008  -0.00844   0.00645   0.01212  -0.01401
           D4           0.00007  -0.00407   0.00362   0.00666  -0.00725
                          D1        D2        D3        D4
           D1           0.00947
           D2          -0.00602   0.00743
           D3          -0.00979   0.00830   0.01813
           D4          -0.00377   0.00322   0.00749   0.00662
 ITU=  1  1  0
 Use linear search instead of GDIIS.
     Eigenvalues ---    0.06095   0.07406   0.09307   0.16120   0.17029
     Eigenvalues ---    0.30094   0.34813   0.37198   0.49178
 RFO step:  Lambda=-6.20404174D-06 EMin= 6.09549964D-02
 Quartic linear search produced a step of -0.12550.
 Iteration  1 RMS(Cart)=  0.00230349 RMS(Int)=  0.00001297
 Iteration  2 RMS(Cart)=  0.00000507 RMS(Int)=  0.00001181
 Iteration  3 RMS(Cart)=  0.00000000 RMS(Int)=  0.00001181
 ITry= 1 IFail=0 DXMaxC= 3.85D-03 DCOld= 1.00D+10 DXMaxT= 4.09D-01 DXLimC= 3.00D+00 Rises=F
 ClnCor:  largest displacement from symmetrization is 4.82D-06 for atom     5.
 Variable       Old X    -DE/DX   Delta X   Delta X   Delta X     New X
                                 (Linear)    (Quad)   (Total)
    R1        2.58363   0.00028   0.00172  -0.00148   0.00024   2.58387
    R2        3.44944   0.00056   0.00093  -0.00017   0.00076   3.45020
    R3        2.08093  -0.00040   0.00076  -0.00208  -0.00132   2.07961
    R4        2.08093  -0.00040   0.00076  -0.00208  -0.00132   2.07961
    A1        1.92566   0.00017   0.00144   0.00140   0.00283   1.92849
    A2        1.94252   0.00007  -0.00143  -0.00017  -0.00157   1.94095
    A3        1.94252  -0.00017  -0.00143  -0.00016  -0.00157   1.94095
    A4        1.86189   0.00022   0.00178   0.00089   0.00266   1.86455
    A5        1.86189   0.00035   0.00178   0.00088   0.00266   1.86455
    A6        1.92598  -0.00062  -0.00193  -0.00274  -0.00465   1.92133
    D1       -2.10147  -0.00038  -0.00204  -0.00216  -0.00421  -2.10568
    D2        2.10147   0.00033   0.00204   0.00217   0.00421   2.10568
    D3       -2.16567   0.00047   0.00413   0.00231   0.00645  -2.15922
    D4        2.01605   0.00014   0.00209   0.00014   0.00224   2.01829
         Item               Value     Threshold  Converged?
 Maximum Force            0.000618     0.000015     NO 
 RMS     Force            0.000361     0.000010     NO 
 Maximum Displacement     0.003850     0.000060     NO 
 RMS     Displacement     0.002306     0.000040     NO 
 Predicted change in Energy=-6.473286D-06
 Lowest energy point so far.  Saving SCF results.
 GradGradGradGradGradGradGradGradGradGradGradGradGradGradGradGradGradGrad

 Leave Link  103 at Sat Sep 12 17:07:25 2026, MaxMem=   536870912 cpu:               0.0 elap:               0.0
 (Enter /app1/ia32-64/Gaussian/Rev-C.02/g16/l202.exe)
                          Input orientation:                          
 ---------------------------------------------------------------------
 Center     Atomic      Atomic             Coordinates (Angstroms)
 Number     Number       Type             X           Y           Z
 ---------------------------------------------------------------------
      1          6           0       -0.018771    0.000000    0.020367
      2          9           0       -0.011900   -0.000000    1.387675
      3         17           0        1.688206   -0.000000   -0.627439
      4          1           0       -0.509743   -0.901926   -0.375281
      5          1           0       -0.509743    0.901926   -0.375281
 ---------------------------------------------------------------------
                    Distance matrix (angstroms):
                    1          2          3          4          5
     1  C    0.000000
     2  F    1.367325   0.000000
     3  Cl   1.825767   2.636484   0.000000
     4  H    1.100482   2.041895   2.389149   0.000000
     5  H    1.100482   2.041895   2.389149   1.803852   0.000000
 Stoichiometry    CH2ClF
 Framework group  CS[SG(CClF),X(H2)]
 Deg. of freedom     6
 Full point group                 CS      NOp   2
 RotChk:  IX=0 Diff= 6.23D-04
 Largest Abelian subgroup         CS      NOp   2
 Largest concise Abelian subgroup CS      NOp   2
                         Standard orientation:                         
 ---------------------------------------------------------------------
 Center     Atomic      Atomic             Coordinates (Angstroms)
 Number     Number       Type             X           Y           Z
 ---------------------------------------------------------------------
      1          6           0       -0.000000    0.826559    0.000000
      2          9           0        1.366968    0.795276    0.000000
      3         17           0       -0.678181   -0.868580    0.000000
      4          1           0       -0.386819    1.324516    0.901926
      5          1           0       -0.386819    1.324516   -0.901926
 ---------------------------------------------------------------------
 Rotational constants (GHZ):          41.1149822           5.4419472           4.9605412
 Leave Link  202 at Sat Sep 12 17:07:25 2026, MaxMem=   536870912 cpu:               0.0 elap:               0.0
 (Enter /app1/ia32-64/Gaussian/Rev-C.02/g16/l301.exe)
 Standard basis: STO-3G (5D, 7F)
 Ernie: Thresh=  0.10000D-02 Tol=  0.10000D-05 Strict=F.
 There are    16 symmetry adapted cartesian basis functions of A'  symmetry.
 There are     5 symmetry adapted cartesian basis functions of A"  symmetry.
 There are    16 symmetry adapted basis functions of A'  symmetry.
 There are     5 symmetry adapted basis functions of A"  symmetry.
    21 basis functions,    63 primitive gaussians,    21 cartesian basis functions
    17 alpha electrons       17 beta electrons
       nuclear repulsion energy        99.4307859121 Hartrees.
 IExCor=    0 DFT=F Ex=HF Corr=None ExCW=0 ScaHFX=  1.000000
 ScaDFX=  1.000000  1.000000  1.000000  1.000000 ScalE2=  1.000000  1.000000
 IRadAn=      5 IRanWt=     -1 IRanGd=            0 ICorTp=0 IEmpDi=  4
 NAtoms=    5 NActive=    5 NUniq=    4 SFac= 1.56D+00 NAtFMM=   60 NAOKFM=F Big=F
 Integral buffers will be    131072 words long.
 Raffenetti 1 integral format.
 Two-electron integral symmetry is turned on.
 Leave Link  301 at Sat Sep 12 17:07:25 2026, MaxMem=   536870912 cpu:               0.0 elap:               0.0
 (Enter /app1/ia32-64/Gaussian/Rev-C.02/g16/l302.exe)
 NPDir=0 NMtPBC=     1 NCelOv=     1 NCel=       1 NClECP=     1 NCelD=      1
         NCelK=      1 NCelE2=     1 NClLst=     1 CellRange=     0.0.
 One-electron integrals computed using PRISM.
 One-electron integral symmetry used in STVInt
 NBasis=    21 RedAO= T EigKep=  2.60D-01  NBF=    16     5
 NBsUse=    21 1.00D-06 EigRej= -1.00D+00 NBFU=    16     5
 Leave Link  302 at Sat Sep 12 17:07:25 2026, MaxMem=   536870912 cpu:               0.1 elap:               0.1
 (Enter /app1/ia32-64/Gaussian/Rev-C.02/g16/l303.exe)
 DipDrv:  MaxL=1.
 Leave Link  303 at Sat Sep 12 17:07:25 2026, MaxMem=   536870912 cpu:               0.0 elap:               0.0
 (Enter /app1/ia32-64/Gaussian/Rev-C.02/g16/l401.exe)
 Initial guess from the checkpoint file:  "ch2fcl_hf_sto3g.chk"
 B after Tr=    -0.000000   -0.000000    0.000000
         Rot=    1.000000    0.000000    0.000000   -0.000426 Ang=  -0.05 deg.
 Guess basis will be translated and rotated to current coordinates.
 JPrj=2 DoOrth=T DoCkMO=T.
 Initial guess orbital symmetries:
       Occupied  (A') (A') (A') (A') (A') (A') (A") (A') (A') (A')
                 (A") (A') (A') (A") (A') (A') (A")
       Virtual   (A') (A') (A") (A')
 The electronic state of the initial guess is 1-A'.
 Leave Link  401 at Sat Sep 12 17:07:25 2026, MaxMem=   536870912 cpu:               0.0 elap:               0.1
 (Enter /app1/ia32-64/Gaussian/Rev-C.02/g16/l502.exe)
 Keep R1 ints in memory in symmetry-blocked form, NReq=834752.
 FoFCou: FMM=F IPFlag=           0 FMFlag=           0 FMFlg1=           0
         NFxFlg=           0 DoJE=F BraDBF=F KetDBF=F FulRan=T
         wScrn=  0.000000 ICntrl=       600 IOpCl=  0 I1Cent=           0 NGrid=           0
         NMat0=    1 NMatS0=    231 NMatT0=    0 NMatD0=    1 NMtDS0=    0 NMtDT0=    0
 Petite list used in FoFCou.
 Closed shell SCF:
 Using DIIS extrapolation, IDIIS=  1040.
 NGot=   536870912 LenX=   536853818 LenY=   536852936
 Requested convergence on RMS density matrix=1.00D-08 within 128 cycles.
 Requested convergence on MAX density matrix=1.00D-06.
 Requested convergence on             energy=1.00D-06.
 No special actions if energy rises.

 Cycle   1  Pass 1  IDiag  1:
 E= -591.172389889701    
 DIIS: error= 1.57D-04 at cycle   1 NSaved=   1.
 NSaved= 1 IEnMin= 1 EnMin= -591.172389889701     IErMin= 1 ErrMin= 1.57D-04
 ErrMax= 1.57D-04  0.00D+00 EMaxC= 1.00D-01 BMatC= 1.09D-06 BMatP= 1.09D-06
 IDIUse=3 WtCom= 9.98D-01 WtEn= 1.57D-03
 Coeff-Com:  0.100D+01
 Coeff-En:   0.100D+01
 Coeff:      0.100D+01
 Gap=     0.718 Goal=   None    Shift=    0.000
 RMSDP=8.70D-05 MaxDP=5.50D-04              OVMax= 0.00D+00

 Cycle   2  Pass 1  IDiag  1:
 E= -591.172392230524     Delta-E=       -0.000002340822 Rises=F Damp=F
 DIIS: error= 8.80D-05 at cycle   2 NSaved=   2.
 NSaved= 2 IEnMin= 2 EnMin= -591.172392230524     IErMin= 2 ErrMin= 8.80D-05
 ErrMax= 8.80D-05  0.00D+00 EMaxC= 1.00D-01 BMatC= 1.49D-07 BMatP= 1.09D-06
 IDIUse=1 WtCom= 1.00D+00 WtEn= 0.00D+00
 Coeff-Com: -0.380D+00 0.138D+01
 Coeff:     -0.380D+00 0.138D+01
 Gap=     0.719 Goal=   None    Shift=    0.000
 RMSDP=4.92D-05 MaxDP=3.63D-04 DE=-2.34D-06 OVMax= 0.00D+00

 Cycle   3  Pass 1  IDiag  1:
 E= -591.172392703292     Delta-E=       -0.000000472769 Rises=F Damp=F
 DIIS: error= 2.73D-05 at cycle   3 NSaved=   3.
 NSaved= 3 IEnMin= 3 EnMin= -591.172392703292     IErMin= 3 ErrMin= 2.73D-05
 ErrMax= 2.73D-05  0.00D+00 EMaxC= 1.00D-01 BMatC= 1.29D-08 BMatP= 1.49D-07
 IDIUse=1 WtCom= 1.00D+00 WtEn= 0.00D+00
 Coeff-Com:  0.601D-01-0.444D+00 0.138D+01
 Coeff:      0.601D-01-0.444D+00 0.138D+01
 Gap=     0.718 Goal=   None    Shift=    0.000
 RMSDP=1.76D-05 MaxDP=1.35D-04 DE=-4.73D-07 OVMax= 0.00D+00

 Cycle   4  Pass 1  IDiag  1:
 E= -591.172392749286     Delta-E=       -0.000000045994 Rises=F Damp=F
 DIIS: error= 6.04D-06 at cycle   4 NSaved=   4.
 NSaved= 4 IEnMin= 4 EnMin= -591.172392749286     IErMin= 4 ErrMin= 6.04D-06
 ErrMax= 6.04D-06  0.00D+00 EMaxC= 1.00D-01 BMatC= 7.95D-10 BMatP= 1.29D-08
 IDIUse=1 WtCom= 1.00D+00 WtEn= 0.00D+00
 Coeff-Com:  0.272D-01-0.104D+00-0.505D-02 0.108D+01
 Coeff:      0.272D-01-0.104D+00-0.505D-02 0.108D+01
 Gap=     0.719 Goal=   None    Shift=    0.000
 RMSDP=3.96D-06 MaxDP=3.01D-05 DE=-4.60D-08 OVMax= 0.00D+00

 Cycle   5  Pass 1  IDiag  1:
 E= -591.172392751677     Delta-E=       -0.000000002391 Rises=F Damp=F
 DIIS: error= 1.01D-06 at cycle   5 NSaved=   5.
 NSaved= 5 IEnMin= 5 EnMin= -591.172392751677     IErMin= 5 ErrMin= 1.01D-06
 ErrMax= 1.01D-06  0.00D+00 EMaxC= 1.00D-01 BMatC= 4.09D-11 BMatP= 7.95D-10
 IDIUse=1 WtCom= 1.00D+00 WtEn= 0.00D+00
 Coeff-Com: -0.534D-02 0.366D-01-0.103D+00-0.440D-01 0.112D+01
 Coeff:     -0.534D-02 0.366D-01-0.103D+00-0.440D-01 0.112D+01
 Gap=     0.719 Goal=   None    Shift=    0.000
 RMSDP=9.06D-07 MaxDP=5.58D-06 DE=-2.39D-09 OVMax= 0.00D+00

 Cycle   6  Pass 1  IDiag  1:
 E= -591.172392751801     Delta-E=       -0.000000000125 Rises=F Damp=F
 DIIS: error= 3.02D-07 at cycle   6 NSaved=   6.
 NSaved= 6 IEnMin= 6 EnMin= -591.172392751801     IErMin= 6 ErrMin= 3.02D-07
 ErrMax= 3.02D-07  0.00D+00 EMaxC= 1.00D-01 BMatC= 1.91D-12 BMatP= 4.09D-11
 IDIUse=1 WtCom= 1.00D+00 WtEn= 0.00D+00
 Coeff-Com:  0.184D-02-0.147D-01 0.492D-01-0.106D-01-0.535D+00 0.151D+01
 Coeff:      0.184D-02-0.147D-01 0.492D-01-0.106D-01-0.535D+00 0.151D+01
 Gap=     0.719 Goal=   None    Shift=    0.000
 RMSDP=2.92D-07 MaxDP=1.88D-06 DE=-1.25D-10 OVMax= 0.00D+00

 Cycle   7  Pass 1  IDiag  1:
 E= -591.172392751810     Delta-E=       -0.000000000009 Rises=F Damp=F
 DIIS: error= 5.20D-08 at cycle   7 NSaved=   7.
 NSaved= 7 IEnMin= 7 EnMin= -591.172392751810     IErMin= 7 ErrMin= 5.20D-08
 ErrMax= 5.20D-08  0.00D+00 EMaxC= 1.00D-01 BMatC= 4.87D-14 BMatP= 1.91D-12
 IDIUse=1 WtCom= 1.00D+00 WtEn= 0.00D+00
 Coeff-Com: -0.404D-03 0.342D-02-0.120D-01 0.428D-02 0.133D+00-0.474D+00
 Coeff-Com:  0.135D+01
 Coeff:     -0.404D-03 0.342D-02-0.120D-01 0.428D-02 0.133D+00-0.474D+00
 Coeff:      0.135D+01
 Gap=     0.719 Goal=   None    Shift=    0.000
 RMSDP=4.88D-08 MaxDP=3.52D-07 DE=-9.09D-12 OVMax= 0.00D+00

 Cycle   8  Pass 1  IDiag  1:
 E= -591.172392751811     Delta-E=       -0.000000000001 Rises=F Damp=F
 DIIS: error= 6.87D-09 at cycle   8 NSaved=   8.
 NSaved= 8 IEnMin= 8 EnMin= -591.172392751811     IErMin= 8 ErrMin= 6.87D-09
 ErrMax= 6.87D-09  0.00D+00 EMaxC= 1.00D-01 BMatC= 1.53D-15 BMatP= 4.87D-14
 IDIUse=1 WtCom= 1.00D+00 WtEn= 0.00D+00
 Coeff-Com:  0.421D-04-0.400D-03 0.154D-02-0.930D-03-0.166D-01 0.733D-01
 Coeff-Com: -0.373D+00 0.132D+01
 Coeff:      0.421D-04-0.400D-03 0.154D-02-0.930D-03-0.166D-01 0.733D-01
 Coeff:     -0.373D+00 0.132D+01
 Gap=     0.719 Goal=   None    Shift=    0.000
 RMSDP=7.86D-09 MaxDP=5.26D-08 DE=-6.82D-13 OVMax= 0.00D+00

 SCF Done:  E(RHF) =  -591.172392752     A.U. after    8 cycles
            NFock=  8  Conv=0.79D-08     -V/T= 2.0166
 KE= 5.815313850810D+02 PE=-1.599247613768D+03 EE= 3.271130500232D+02
 Leave Link  502 at Sat Sep 12 17:07:25 2026, MaxMem=   536870912 cpu:               0.1 elap:               0.1
 (Enter /app1/ia32-64/Gaussian/Rev-C.02/g16/l701.exe)
 ... and contract with generalized density number  0.
 Compute integral first derivatives.
 Leave Link  701 at Sat Sep 12 17:07:25 2026, MaxMem=   536870912 cpu:               0.0 elap:               0.1
 (Enter /app1/ia32-64/Gaussian/Rev-C.02/g16/l702.exe)
 L702 exits ... SP integral derivatives will be done elsewhere.
 Leave Link  702 at Sat Sep 12 17:07:25 2026, MaxMem=   536870912 cpu:               0.0 elap:               0.0
 (Enter /app1/ia32-64/Gaussian/Rev-C.02/g16/l703.exe)
 Integral derivatives from FoFJK, PRISM(SPDF).
 Compute integral first derivatives, UseDBF=F ICtDFT=           0.
 Calling FoFJK, ICntrl=      2127 FMM=F ISym2X=1 I1Cent= 0 IOpClX= 0 NMat=1 NMatS=1 NMatT=0.
 FoFJK:  IHMeth= 1 ICntrl=    2127 DoSepK=F KAlg= 0 I1Cent=           0 FoldK=F
 IRaf=         0 NMat=       1 IRICut=       1 DoRegI=T DoRafI=F ISym2E= 1 IDoP0=0 IntGTp=1.
 FoFCou: FMM=F IPFlag=           0 FMFlag=      100000 FMFlg1=         800
         NFxFlg=           0 DoJE=F BraDBF=F KetDBF=F FulRan=T
         wScrn=  0.000000 ICntrl=      2127 IOpCl=  0 I1Cent=           0 NGrid=           0
         NMat0=    1 NMatS0=      1 NMatT0=    0 NMatD0=    1 NMtDS0=    0 NMtDT0=    0
 Petite list used in FoFCou.
 Leave Link  703 at Sat Sep 12 17:07:25 2026, MaxMem=   536870912 cpu:               0.1 elap:               0.1
 (Enter /app1/ia32-64/Gaussian/Rev-C.02/g16/l716.exe)
 Dipole        =-6.58514529D-02 8.84559631D-01 0.00000000D+00
 ***** Axes restored to original set *****
 -------------------------------------------------------------------
 Center     Atomic                   Forces (Hartrees/Bohr)
 Number     Number              X              Y              Z
 -------------------------------------------------------------------
      1        6           0.000270793    0.000000000   -0.000000115
      2        9           0.000043103    0.000000000    0.000216440
      3       17          -0.000163541    0.000000000    0.000053079
      4        1          -0.000075177   -0.000240098   -0.000134702
      5        1          -0.000075177    0.000240098   -0.000134702
 -------------------------------------------------------------------
 Cartesian Forces:  Max     0.000270793 RMS     0.000144795
 Leave Link  716 at Sat Sep 12 17:07:25 2026, MaxMem=   536870912 cpu:               0.0 elap:               0.0
 (Enter /app1/ia32-64/Gaussian/Rev-C.02/g16/l103.exe)

 GradGradGradGradGradGradGradGradGradGradGradGradGradGradGradGradGradGrad
 Berny optimization.
 Using GEDIIS/GDIIS optimizer.
 FormGI is forming the generalized inverse of G from B-inverse, IUseBI=4.
 Internal  Forces:  Max     0.000278746 RMS     0.000131195
 Search for a local minimum.
 Step number   4 out of a maximum of   24
 All quantities printed in internal units (Hartrees-Bohrs-Radians)
 RMS Force = .13119D-03 SwitMx=.10000D-02 MixMth= 2
 Mixed Optimization -- En-DIIS/RFO-DIIS
 Swapping is turned off.
 Update second derivatives using D2CorX and points    1    2    3    4
 DE= -5.59D-06 DEPred=-6.47D-06 R= 8.63D-01
 TightC=F SS=  1.41D+00  RLast= 1.16D-02 DXNew= 6.8868D-01 3.4838D-02
 Trust test= 8.63D-01 RLast= 1.16D-02 DXMaxT set to 4.09D-01
 The second derivative matrix:
                          R1        R2        R3        R4        A1
           R1           0.47543
           R2           0.04282   0.34122
           R3           0.01450   0.00471   0.37688
           R4           0.01450   0.00471   0.02876   0.37688
           A1          -0.04517  -0.02916  -0.00412  -0.00412   0.20375
           A2           0.04236  -0.00558   0.00125   0.00125   0.01655
           A3           0.02016  -0.01540   0.00329   0.00329   0.01740
           A4          -0.04097   0.01855  -0.00607  -0.00607  -0.02377
           A5          -0.02560   0.01830  -0.00758  -0.00758  -0.02519
           A6           0.02390  -0.00570   0.00932   0.00932   0.04084
           D1          -0.02267  -0.03429   0.00184   0.00184  -0.00138
           D2           0.01908   0.02870  -0.00178  -0.00178   0.00107
           D3           0.03877   0.02313  -0.00431  -0.00431  -0.00176
           D4           0.01969  -0.00557  -0.00253  -0.00253  -0.00282
                          A2        A3        A4        A5        A6
           A2           0.14815
           A3          -0.01313   0.15237
           A4           0.01780   0.01317   0.13958
           A5           0.01860   0.00983  -0.01760   0.14788
           A6          -0.02023  -0.01064   0.01914   0.01385   0.13633
           D1          -0.00189   0.00713  -0.00589  -0.01089   0.01416
           D2           0.00165  -0.00602   0.00498   0.00924  -0.01199
           D3           0.00297  -0.00992   0.00814   0.01590  -0.01792
           D4           0.00132  -0.00390   0.00316   0.00666  -0.00593
                          D1        D2        D3        D4
           D1           0.01612
           D2          -0.01168   0.01227
           D3          -0.01754   0.01491   0.02695
           D4          -0.00586   0.00500   0.00969   0.00704
 ITU=  1  1  1  0
     Eigenvalues ---    0.06237   0.07257   0.09160   0.16138   0.16788
     Eigenvalues ---    0.33669   0.34813   0.40204   0.49337
 En-DIIS/RFO-DIIS/Sim-DIIS IScMMF=       -3 using points:     4    3
 RFO step:  Lambda=-6.16877337D-07.
 NNeg= 0 NGDIIS= 2 SimSw=  2.50D-01 Rises=F DC= -5.59D-06 SmlDif=  1.00D-05
 NRisDI= 0 DoIntr=F SqrtH=F CThrHd= 10.0 CDAdj=  3.0
 RMS Error=  0.3670934916D-03 NUsed= 2 OKEnD=F EnDIS=F
 InvSVX:  RCond= 1.52D-04 Info=           0 Equed=N FErr=  9.59D-16 BErr=  6.01D-17
 DidBck=F Rises=F RFO-DIIS coefs:    0.93992    0.06008
 Iteration  1 RMS(Cart)=  0.00034930 RMS(Int)=  0.00000038
 Iteration  2 RMS(Cart)=  0.00000004 RMS(Int)=  0.00000038
 ITry= 1 IFail=0 DXMaxC= 6.01D-04 DCOld= 1.00D+10 DXMaxT= 4.09D-01 DXLimC= 3.00D+00 Rises=F
 ClnCor:  largest displacement from symmetrization is 1.27D-05 for atom     5.
 Variable       Old X    -DE/DX   Delta X   Delta X   Delta X     New X
                                 (Linear)    (Quad)   (Total)
    R1        2.58387   0.00022  -0.00001   0.00047   0.00045   2.58432
    R2        3.45020  -0.00017  -0.00005  -0.00046  -0.00051   3.44969
    R3        2.07961   0.00028   0.00008   0.00058   0.00066   2.08027
    R4        2.07961   0.00028   0.00008   0.00058   0.00066   2.08027
    A1        1.92849  -0.00001  -0.00017   0.00015  -0.00002   1.92846
    A2        1.94095   0.00001   0.00009   0.00012   0.00022   1.94117
    A3        1.94095   0.00004   0.00009   0.00013   0.00022   1.94117
    A4        1.86455  -0.00002  -0.00016  -0.00007  -0.00023   1.86433
    A5        1.86455  -0.00004  -0.00016  -0.00007  -0.00023   1.86433
    A6        1.92133   0.00003   0.00028  -0.00027   0.00001   1.92134
    D1       -2.10568   0.00002   0.00025  -0.00021   0.00005  -2.10563
    D2        2.10568  -0.00002  -0.00025   0.00021  -0.00005   2.10563
    D3       -2.15922  -0.00005  -0.00039  -0.00005  -0.00044  -2.15965
    D4        2.01829  -0.00004  -0.00013  -0.00026  -0.00039   2.01790
         Item               Value     Threshold  Converged?
 Maximum Force            0.000279     0.000015     NO 
 RMS     Force            0.000131     0.000010     NO 
 Maximum Displacement     0.000601     0.000060     NO 
 RMS     Displacement     0.000348     0.000040     NO 
 Predicted change in Energy=-3.084296D-07
 Lowest energy point so far.  Saving SCF results.
 GradGradGradGradGradGradGradGradGradGradGradGradGradGradGradGradGradGrad

 Leave Link  103 at Sat Sep 12 17:07:26 2026, MaxMem=   536870912 cpu:               0.0 elap:               0.0
 (Enter /app1/ia32-64/Gaussian/Rev-C.02/g16/l202.exe)
                          Input orientation:                          
 ---------------------------------------------------------------------
 Center     Atomic      Atomic             Coordinates (Angstroms)
 Number     Number       Type             X           Y           Z
 ---------------------------------------------------------------------
      1          6           0       -0.018735    0.000000    0.020445
      2          9           0       -0.011748   -0.000000    1.387993
      3         17           0        1.687950   -0.000000   -0.627371
      4          1           0       -0.509711   -0.902214   -0.375510
      5          1           0       -0.509711    0.902214   -0.375510
 ---------------------------------------------------------------------
                    Distance matrix (angstroms):
                    1          2          3          4          5
     1  C    0.000000
     2  F    1.367566   0.000000
     3  Cl   1.825497   2.636411   0.000000
     4  H    1.100830   2.042523   2.388961   0.000000
     5  H    1.100830   2.042523   2.388961   1.804428   0.000000
 Stoichiometry    CH2ClF
 Framework group  CS[SG(CClF),X(H2)]
 Deg. of freedom     6
 Full point group                 CS      NOp   2
 RotChk:  IX=0 Diff= 7.32D-05
 Largest Abelian subgroup         CS      NOp   2
 Largest concise Abelian subgroup CS      NOp   2
                         Standard orientation:                         
 ---------------------------------------------------------------------
 Center     Atomic      Atomic             Coordinates (Angstroms)
 Number     Number       Type             X           Y           Z
 ---------------------------------------------------------------------
      1          6           0        0.000000    0.826444    0.000000
      2          9           0        1.367204    0.794970   -0.000000
      3         17           0       -0.678272   -0.868368    0.000000
      4          1           0       -0.387101    1.324431    0.902214
      5          1           0       -0.387101    1.324431   -0.902214
 ---------------------------------------------------------------------
 Rotational constants (GHZ):          41.1018473           5.4425163           4.9609246
 Leave Link  202 at Sat Sep 12 17:07:26 2026, MaxMem=   536870912 cpu:               0.0 elap:               0.0
 (Enter /app1/ia32-64/Gaussian/Rev-C.02/g16/l301.exe)
 Standard basis: STO-3G (5D, 7F)
 Ernie: Thresh=  0.10000D-02 Tol=  0.10000D-05 Strict=F.
 There are    16 symmetry adapted cartesian basis functions of A'  symmetry.
 There are     5 symmetry adapted cartesian basis functions of A"  symmetry.
 There are    16 symmetry adapted basis functions of A'  symmetry.
 There are     5 symmetry adapted basis functions of A"  symmetry.
    21 basis functions,    63 primitive gaussians,    21 cartesian basis functions
    17 alpha electrons       17 beta electrons
       nuclear repulsion energy        99.4295755103 Hartrees.
 IExCor=    0 DFT=F Ex=HF Corr=None ExCW=0 ScaHFX=  1.000000
 ScaDFX=  1.000000  1.000000  1.000000  1.000000 ScalE2=  1.000000  1.000000
 IRadAn=      5 IRanWt=     -1 IRanGd=            0 ICorTp=0 IEmpDi=  4
 NAtoms=    5 NActive=    5 NUniq=    4 SFac= 1.56D+00 NAtFMM=   60 NAOKFM=F Big=F
 Integral buffers will be    131072 words long.
 Raffenetti 1 integral format.
 Two-electron integral symmetry is turned on.
 Leave Link  301 at Sat Sep 12 17:07:26 2026, MaxMem=   536870912 cpu:               0.0 elap:               0.0
 (Enter /app1/ia32-64/Gaussian/Rev-C.02/g16/l302.exe)
 NPDir=0 NMtPBC=     1 NCelOv=     1 NCel=       1 NClECP=     1 NCelD=      1
         NCelK=      1 NCelE2=     1 NClLst=     1 CellRange=     0.0.
 One-electron integrals computed using PRISM.
 One-electron integral symmetry used in STVInt
 NBasis=    21 RedAO= T EigKep=  2.60D-01  NBF=    16     5
 NBsUse=    21 1.00D-06 EigRej= -1.00D+00 NBFU=    16     5
 Leave Link  302 at Sat Sep 12 17:07:26 2026, MaxMem=   536870912 cpu:               0.0 elap:               0.1
 (Enter /app1/ia32-64/Gaussian/Rev-C.02/g16/l303.exe)
 DipDrv:  MaxL=1.
 Leave Link  303 at Sat Sep 12 17:07:26 2026, MaxMem=   536870912 cpu:               0.0 elap:               0.0
 (Enter /app1/ia32-64/Gaussian/Rev-C.02/g16/l401.exe)
 Initial guess from the checkpoint file:  "ch2fcl_hf_sto3g.chk"
 B after Tr=     0.000000    0.000000    0.000000
         Rot=    1.000000   -0.000000   -0.000000    0.000083 Ang=   0.01 deg.
 Guess basis will be translated and rotated to current coordinates.
 JPrj=2 DoOrth=T DoCkMO=T.
 Initial guess orbital symmetries:
       Occupied  (A') (A') (A') (A') (A') (A') (A") (A') (A') (A')
                 (A") (A') (A') (A") (A') (A') (A")
       Virtual   (A') (A') (A") (A')
 The electronic state of the initial guess is 1-A'.
 Leave Link  401 at Sat Sep 12 17:07:26 2026, MaxMem=   536870912 cpu:               0.0 elap:               0.1
 (Enter /app1/ia32-64/Gaussian/Rev-C.02/g16/l502.exe)
 Keep R1 ints in memory in symmetry-blocked form, NReq=834752.
 FoFCou: FMM=F IPFlag=           0 FMFlag=           0 FMFlg1=           0
         NFxFlg=           0 DoJE=F BraDBF=F KetDBF=F FulRan=T
         wScrn=  0.000000 ICntrl=       600 IOpCl=  0 I1Cent=           0 NGrid=           0
         NMat0=    1 NMatS0=    231 NMatT0=    0 NMatD0=    1 NMtDS0=    0 NMtDT0=    0
 Petite list used in FoFCou.
 Closed shell SCF:
 Using DIIS extrapolation, IDIIS=  1040.
 NGot=   536870912 LenX=   536853818 LenY=   536852936
 Requested convergence on RMS density matrix=1.00D-08 within 128 cycles.
 Requested convergence on MAX density matrix=1.00D-06.
 Requested convergence on             energy=1.00D-06.
 No special actions if energy rises.

 Cycle   1  Pass 1  IDiag  1:
 E= -591.172392989829    
 DIIS: error= 2.41D-05 at cycle   1 NSaved=   1.
 NSaved= 1 IEnMin= 1 EnMin= -591.172392989829     IErMin= 1 ErrMin= 2.41D-05
 ErrMax= 2.41D-05  0.00D+00 EMaxC= 1.00D-01 BMatC= 1.88D-08 BMatP= 1.88D-08
 IDIUse=1 WtCom= 1.00D+00 WtEn= 0.00D+00
 Coeff-Com:  0.100D+01
 Coeff:      0.100D+01
 Gap=     0.719 Goal=   None    Shift=    0.000
 RMSDP=8.32D-06 MaxDP=4.81D-05              OVMax= 0.00D+00

 Cycle   2  Pass 1  IDiag  1:
 E= -591.172393010790     Delta-E=       -0.000000020961 Rises=F Damp=F
 DIIS: error= 5.01D-06 at cycle   2 NSaved=   2.
 NSaved= 2 IEnMin= 2 EnMin= -591.172393010790     IErMin= 2 ErrMin= 5.01D-06
 ErrMax= 5.01D-06  0.00D+00 EMaxC= 1.00D-01 BMatC= 1.02D-09 BMatP= 1.88D-08
 IDIUse=1 WtCom= 1.00D+00 WtEn= 0.00D+00
 Coeff-Com: -0.145D+00 0.114D+01
 Coeff:     -0.145D+00 0.114D+01
 Gap=     0.719 Goal=   None    Shift=    0.000
 RMSDP=3.23D-06 MaxDP=2.15D-05 DE=-2.10D-08 OVMax= 0.00D+00

 Cycle   3  Pass 1  IDiag  1:
 E= -591.172393013380     Delta-E=       -0.000000002590 Rises=F Damp=F
 DIIS: error= 2.09D-06 at cycle   3 NSaved=   3.
 NSaved= 3 IEnMin= 3 EnMin= -591.172393013380     IErMin= 3 ErrMin= 2.09D-06
 ErrMax= 2.09D-06  0.00D+00 EMaxC= 1.00D-01 BMatC= 8.87D-11 BMatP= 1.02D-09
 IDIUse=1 WtCom= 1.00D+00 WtEn= 0.00D+00
 Coeff-Com:  0.265D-02-0.295D+00 0.129D+01
 Coeff:      0.265D-02-0.295D+00 0.129D+01
 Gap=     0.719 Goal=   None    Shift=    0.000
 RMSDP=1.22D-06 MaxDP=8.17D-06 DE=-2.59D-09 OVMax= 0.00D+00

 Cycle   4  Pass 1  IDiag  1:
 E= -591.172393013648     Delta-E=       -0.000000000269 Rises=F Damp=F
 DIIS: error= 4.44D-07 at cycle   4 NSaved=   4.
 NSaved= 4 IEnMin= 4 EnMin= -591.172393013648     IErMin= 4 ErrMin= 4.44D-07
 ErrMax= 4.44D-07  0.00D+00 EMaxC= 1.00D-01 BMatC= 5.02D-12 BMatP= 8.87D-11
 IDIUse=1 WtCom= 1.00D+00 WtEn= 0.00D+00
 Coeff-Com:  0.803D-02-0.960D-01 0.123D+00 0.965D+00
 Coeff:      0.803D-02-0.960D-01 0.123D+00 0.965D+00
 Gap=     0.719 Goal=   None    Shift=    0.000
 RMSDP=2.46D-07 MaxDP=1.94D-06 DE=-2.69D-10 OVMax= 0.00D+00

 Cycle   5  Pass 1  IDiag  1:
 E= -591.172393013660     Delta-E=       -0.000000000012 Rises=F Damp=F
 DIIS: error= 1.39D-07 at cycle   5 NSaved=   5.
 NSaved= 5 IEnMin= 5 EnMin= -591.172393013660     IErMin= 5 ErrMin= 1.39D-07
 ErrMax= 1.39D-07  0.00D+00 EMaxC= 1.00D-01 BMatC= 3.11D-13 BMatP= 5.02D-12
 IDIUse=1 WtCom= 1.00D+00 WtEn= 0.00D+00
 Coeff-Com: -0.268D-02 0.496D-01-0.120D+00-0.303D+00 0.138D+01
 Coeff:     -0.268D-02 0.496D-01-0.120D+00-0.303D+00 0.138D+01
 Gap=     0.719 Goal=   None    Shift=    0.000
 RMSDP=7.99D-08 MaxDP=4.53D-07 DE=-1.18D-11 OVMax= 0.00D+00

 Cycle   6  Pass 1  IDiag  1:
 E= -591.172393013662     Delta-E=       -0.000000000002 Rises=F Damp=F
 DIIS: error= 2.54D-08 at cycle   6 NSaved=   6.
 NSaved= 6 IEnMin= 6 EnMin= -591.172393013662     IErMin= 6 ErrMin= 2.54D-08
 ErrMax= 2.54D-08  0.00D+00 EMaxC= 1.00D-01 BMatC= 1.24D-14 BMatP= 3.11D-13
 IDIUse=1 WtCom= 1.00D+00 WtEn= 0.00D+00
 Coeff-Com:  0.106D-02-0.211D-01 0.546D-01 0.118D+00-0.654D+00 0.150D+01
 Coeff:      0.106D-02-0.211D-01 0.546D-01 0.118D+00-0.654D+00 0.150D+01
 Gap=     0.719 Goal=   None    Shift=    0.000
 RMSDP=1.74D-08 MaxDP=1.34D-07 DE=-1.82D-12 OVMax= 0.00D+00

 Cycle   7  Pass 1  IDiag  1:
 E= -591.172393013662     Delta-E=        0.000000000000 Rises=F Damp=F
 DIIS: error= 6.09D-09 at cycle   7 NSaved=   7.
 NSaved= 7 IEnMin= 6 EnMin= -591.172393013662     IErMin= 7 ErrMin= 6.09D-09
 ErrMax= 6.09D-09  0.00D+00 EMaxC= 1.00D-01 BMatC= 6.46D-16 BMatP= 1.24D-14
 IDIUse=1 WtCom= 1.00D+00 WtEn= 0.00D+00
 Coeff-Com: -0.135D-03 0.303D-02-0.840D-02-0.151D-01 0.103D+00-0.472D+00
 Coeff-Com:  0.139D+01
 Coeff:     -0.135D-03 0.303D-02-0.840D-02-0.151D-01 0.103D+00-0.472D+00
 Coeff:      0.139D+01
 Gap=     0.719 Goal=   None    Shift=    0.000
 RMSDP=4.55D-09 MaxDP=3.48D-08 DE= 1.14D-13 OVMax= 0.00D+00

 SCF Done:  E(RHF) =  -591.172393014     A.U. after    7 cycles
            NFock=  7  Conv=0.46D-08     -V/T= 2.0166
 KE= 5.815308344267D+02 PE=-1.599245494644D+03 EE= 3.271126916933D+02
 Leave Link  502 at Sat Sep 12 17:07:26 2026, MaxMem=   536870912 cpu:               0.0 elap:               0.1
 (Enter /app1/ia32-64/Gaussian/Rev-C.02/g16/l701.exe)
 ... and contract with generalized density number  0.
 Compute integral first derivatives.
 Leave Link  701 at Sat Sep 12 17:07:26 2026, MaxMem=   536870912 cpu:               0.0 elap:               0.1
 (Enter /app1/ia32-64/Gaussian/Rev-C.02/g16/l702.exe)
 L702 exits ... SP integral derivatives will be done elsewhere.
 Leave Link  702 at Sat Sep 12 17:07:26 2026, MaxMem=   536870912 cpu:               0.0 elap:               0.0
 (Enter /app1/ia32-64/Gaussian/Rev-C.02/g16/l703.exe)
 Integral derivatives from FoFJK, PRISM(SPDF).
 Compute integral first derivatives, UseDBF=F ICtDFT=           0.
 Calling FoFJK, ICntrl=      2127 FMM=F ISym2X=1 I1Cent= 0 IOpClX= 0 NMat=1 NMatS=1 NMatT=0.
 FoFJK:  IHMeth= 1 ICntrl=    2127 DoSepK=F KAlg= 0 I1Cent=           0 FoldK=F
 IRaf=         0 NMat=       1 IRICut=       1 DoRegI=T DoRafI=F ISym2E= 1 IDoP0=0 IntGTp=1.
 FoFCou: FMM=F IPFlag=           0 FMFlag=      100000 FMFlg1=         800
         NFxFlg=           0 DoJE=F BraDBF=F KetDBF=F FulRan=T
         wScrn=  0.000000 ICntrl=      2127 IOpCl=  0 I1Cent=           0 NGrid=           0
         NMat0=    1 NMatS0=      1 NMatT0=    0 NMatD0=    1 NMtDS0=    0 NMtDT0=    0
 Petite list used in FoFCou.
 Leave Link  703 at Sat Sep 12 17:07:26 2026, MaxMem=   536870912 cpu:               0.0 elap:               0.3
 (Enter /app1/ia32-64/Gaussian/Rev-C.02/g16/l716.exe)
 Dipole        =-6.60160800D-02 8.84335226D-01 0.00000000D+00
 ***** Axes restored to original set *****
 -------------------------------------------------------------------
 Center     Atomic                   Forces (Hartrees/Bohr)
 Number     Number              X              Y              Z
 -------------------------------------------------------------------
      1        6          -0.000042790    0.000000000   -0.000000750
      2        9           0.000003741   -0.000000000   -0.000071946
      3       17           0.000005732   -0.000000000    0.000011104
      4        1           0.000016658    0.000019068    0.000030796
      5        1           0.000016658   -0.000019068    0.000030796
 -------------------------------------------------------------------
 Cartesian Forces:  Max     0.000071946 RMS     0.000026276
 Leave Link  716 at Sat Sep 12 17:07:27 2026, MaxMem=   536870912 cpu:               0.0 elap:               0.0
 (Enter /app1/ia32-64/Gaussian/Rev-C.02/g16/l103.exe)

 GradGradGradGradGradGradGradGradGradGradGradGradGradGradGradGradGradGrad
 Berny optimization.
 Using GEDIIS/GDIIS optimizer.
 FormGI is forming the generalized inverse of G from B-inverse, IUseBI=4.
 Internal  Forces:  Max     0.000071926 RMS     0.000025021
 Search for a local minimum.
 Step number   5 out of a maximum of   24
 All quantities printed in internal units (Hartrees-Bohrs-Radians)
 RMS Force = .25021D-04 SwitMx=.10000D-02 MixMth= 2
 Mixed Optimization -- En-DIIS/RFO-DIIS
 Swapping is turned off.
 Update second derivatives using D2CorX and points    1    2    3    4    5
 DE= -2.62D-07 DEPred=-3.08D-07 R= 8.49D-01
 Trust test= 8.49D-01 RLast= 1.37D-03 DXMaxT set to 4.09D-01
 The second derivative matrix:
                          R1        R2        R3        R4        A1
           R1           0.52017
           R2           0.03437   0.33622
           R3           0.04403   0.00591   0.38912
           R4           0.04403   0.00591   0.04100   0.38912
           A1          -0.03255  -0.01735  -0.00458  -0.00458   0.19357
           A2           0.02833  -0.00047  -0.01235  -0.01235   0.01386
           A3           0.01932  -0.01422   0.00085   0.00085   0.01270
           A4          -0.02190   0.00963   0.01353   0.01353  -0.02064
           A5          -0.02051   0.01580  -0.00145  -0.00145  -0.02143
           A6           0.00743  -0.00743   0.00016   0.00016   0.04724
           D1          -0.02578  -0.02576  -0.00625  -0.00625  -0.00598
           D2           0.02115   0.02172   0.00453   0.00453   0.00493
           D3           0.01822   0.02748  -0.02040  -0.02040   0.00251
           D4          -0.00292   0.00576  -0.02493  -0.02493  -0.00242
                          A2        A3        A4        A5        A6
           A2           0.14616
           A3          -0.01407   0.15251
           A4           0.02074   0.01542   0.13583
           A5           0.02003   0.01012  -0.02022   0.14711
           A6          -0.01978  -0.00967   0.01799   0.01321   0.13327
           D1          -0.00349   0.00415  -0.00437  -0.00847   0.01765
           D2           0.00297  -0.00357   0.00370   0.00724  -0.01489
           D3           0.00175  -0.01098   0.00876   0.01713  -0.01949
           D4          -0.00123  -0.00741   0.00506   0.00989  -0.00460
                          D1        D2        D3        D4
           D1           0.01457
           D2          -0.01035   0.01112
           D3          -0.01493   0.01276   0.02621
           D4          -0.00458   0.00399   0.01110   0.00946
 ITU=  0  1  1  1  0
     Eigenvalues ---    0.06332   0.07346   0.09228   0.16153   0.16893
     Eigenvalues ---    0.33770   0.34813   0.40089   0.55925
 En-DIIS/RFO-DIIS/Sim-DIIS IScMMF=       -3 using points:     5    4    3
 RFO step:  Lambda=-2.44571453D-08.
 NNeg= 0 NGDIIS= 3 SimSw=  2.50D-01 Rises=F DC= -2.62D-07 SmlDif=  1.00D-05
 NRisDI= 0 DoIntr=F SqrtH=F CThrHd= 10.0 CDAdj=  3.0
 RMS Error=  0.1045003156D-03 NUsed= 3 OKEnD=F EnDIS=F
 InvSVX:  RCond= 5.10D-07 Info=           0 Equed=N FErr=  1.72D-15 BErr=  1.08D-16
 DidBck=T Rises=F RFO-DIIS coefs:    0.76558    0.21465    0.01977
 Iteration  1 RMS(Cart)=  0.00008496 RMS(Int)=  0.00000012
 Iteration  2 RMS(Cart)=  0.00000001 RMS(Int)=  0.00000012
 ITry= 1 IFail=0 DXMaxC= 2.15D-04 DCOld= 1.00D+10 DXMaxT= 4.09D-01 DXLimC= 3.00D+00 Rises=F
 ClnCor:  largest displacement from symmetrization is 1.51D-06 for atom     5.
 Variable       Old X    -DE/DX   Delta X   Delta X   Delta X     New X
                                 (Linear)    (Quad)   (Total)
    R1        2.58432  -0.00007  -0.00011  -0.00000  -0.00011   2.58421
    R2        3.44969   0.00000   0.00010  -0.00008   0.00002   3.44971
    R3        2.08027  -0.00003  -0.00013   0.00007  -0.00006   2.08021
    R4        2.08027  -0.00003  -0.00013   0.00007  -0.00006   2.08021
    A1        1.92846  -0.00001  -0.00005  -0.00004  -0.00009   1.92837
    A2        1.94117  -0.00001  -0.00002  -0.00007  -0.00008   1.94108
    A3        1.94117  -0.00001  -0.00002  -0.00007  -0.00008   1.94108
    A4        1.86433   0.00000   0.00000   0.00006   0.00006   1.86438
    A5        1.86433   0.00001   0.00000   0.00006   0.00006   1.86438
    A6        1.92134   0.00002   0.00009   0.00007   0.00016   1.92150
    D1       -2.10563   0.00001   0.00007   0.00006   0.00013  -2.10551
    D2        2.10563  -0.00001  -0.00007  -0.00005  -0.00013   2.10551
    D3       -2.15965   0.00001  -0.00003   0.00008   0.00005  -2.15960
    D4        2.01790   0.00002   0.00005   0.00013   0.00018   2.01808
         Item               Value     Threshold  Converged?
 Maximum Force            0.000072     0.000015     NO 
 RMS     Force            0.000025     0.000010     NO 
 Maximum Displacement     0.000215     0.000060     NO 
 RMS     Displacement     0.000085     0.000040     NO 
 Predicted change in Energy=-1.222115D-08
 Lowest energy point so far.  Saving SCF results.
 GradGradGradGradGradGradGradGradGradGradGradGradGradGradGradGradGradGrad

 Leave Link  103 at Sat Sep 12 17:07:27 2026, MaxMem=   536870912 cpu:               0.0 elap:               0.0
 (Enter /app1/ia32-64/Gaussian/Rev-C.02/g16/l202.exe)
                          Input orientation:                          
 ---------------------------------------------------------------------
 Center     Atomic      Atomic             Coordinates (Angstroms)
 Number     Number       Type             X           Y           Z
 ---------------------------------------------------------------------
      1          6           0       -0.018764    0.000000    0.020392
      2          9           0       -0.011730   -0.000000    1.387879
      3         17           0        1.687970   -0.000000   -0.627325
      4          1           0       -0.509716   -0.902239   -0.375449
      5          1           0       -0.509716    0.902239   -0.375449
 ---------------------------------------------------------------------
                    Distance matrix (angstroms):
                    1          2          3          4          5
     1  C    0.000000
     2  F    1.367506   0.000000
     3  Cl   1.825507   2.636291   0.000000
     4  H    1.100800   2.042389   2.388996   0.000000
     5  H    1.100800   2.042389   2.388996   1.804479   0.000000
 Stoichiometry    CH2ClF
 Framework group  CS[SG(CClF),X(H2)]
 Deg. of freedom     6
 Full point group                 CS      NOp   2
 RotChk:  IX=0 Diff= 6.75D-05
 Largest Abelian subgroup         CS      NOp   2
 Largest concise Abelian subgroup CS      NOp   2
                         Standard orientation:                         
 ---------------------------------------------------------------------
 Center     Atomic      Atomic             Coordinates (Angstroms)
 Number     Number       Type             X           Y           Z
 ---------------------------------------------------------------------
      1          6           0        0.000000    0.826482   -0.000000
      2          9           0        1.367141    0.794898   -0.000000
      3         17           0       -0.678256   -0.868347    0.000000
      4          1           0       -0.386963    1.324463    0.902239
      5          1           0       -0.386963    1.324463   -0.902239
 ---------------------------------------------------------------------
 Rotational constants (GHZ):          41.1011108           5.4429136           4.9612531
 Leave Link  202 at Sat Sep 12 17:07:27 2026, MaxMem=   536870912 cpu:               0.0 elap:               0.0
 (Enter /app1/ia32-64/Gaussian/Rev-C.02/g16/l301.exe)
 Standard basis: STO-3G (5D, 7F)
 Ernie: Thresh=  0.10000D-02 Tol=  0.10000D-05 Strict=F.
 There are    16 symmetry adapted cartesian basis functions of A'  symmetry.
 There are     5 symmetry adapted cartesian basis functions of A"  symmetry.
 There are    16 symmetry adapted basis functions of A'  symmetry.
 There are     5 symmetry adapted basis functions of A"  symmetry.
    21 basis functions,    63 primitive gaussians,    21 cartesian basis functions
    17 alpha electrons       17 beta electrons
       nuclear repulsion energy        99.4320665322 Hartrees.
 IExCor=    0 DFT=F Ex=HF Corr=None ExCW=0 ScaHFX=  1.000000
 ScaDFX=  1.000000  1.000000  1.000000  1.000000 ScalE2=  1.000000  1.000000
 IRadAn=      5 IRanWt=     -1 IRanGd=            0 ICorTp=0 IEmpDi=  4
 NAtoms=    5 NActive=    5 NUniq=    4 SFac= 1.56D+00 NAtFMM=   60 NAOKFM=F Big=F
 Integral buffers will be    131072 words long.
 Raffenetti 1 integral format.
 Two-electron integral symmetry is turned on.
 Leave Link  301 at Sat Sep 12 17:07:27 2026, MaxMem=   536870912 cpu:               0.0 elap:               0.0
 (Enter /app1/ia32-64/Gaussian/Rev-C.02/g16/l302.exe)
 NPDir=0 NMtPBC=     1 NCelOv=     1 NCel=       1 NClECP=     1 NCelD=      1
         NCelK=      1 NCelE2=     1 NClLst=     1 CellRange=     0.0.
 One-electron integrals computed using PRISM.
 One-electron integral symmetry used in STVInt
 NBasis=    21 RedAO= T EigKep=  2.60D-01  NBF=    16     5
 NBsUse=    21 1.00D-06 EigRej= -1.00D+00 NBFU=    16     5
 Leave Link  302 at Sat Sep 12 17:07:27 2026, MaxMem=   536870912 cpu:               0.1 elap:               0.1
 (Enter /app1/ia32-64/Gaussian/Rev-C.02/g16/l303.exe)
 DipDrv:  MaxL=1.
 Leave Link  303 at Sat Sep 12 17:07:27 2026, MaxMem=   536870912 cpu:               0.0 elap:               0.0
 (Enter /app1/ia32-64/Gaussian/Rev-C.02/g16/l401.exe)
 Initial guess from the checkpoint file:  "ch2fcl_hf_sto3g.chk"
 B after Tr=     0.000000   -0.000000   -0.000000
         Rot=    1.000000    0.000000    0.000000    0.000008 Ang=   0.00 deg.
 Guess basis will be translated and rotated to current coordinates.
 JPrj=2 DoOrth=T DoCkMO=T.
 Initial guess orbital symmetries:
       Occupied  (A') (A') (A') (A') (A') (A') (A") (A') (A') (A')
                 (A") (A') (A') (A") (A') (A') (A")
       Virtual   (A') (A') (A") (A')
 The electronic state of the initial guess is 1-A'.
 Leave Link  401 at Sat Sep 12 17:07:27 2026, MaxMem=   536870912 cpu:               0.0 elap:               0.1
 (Enter /app1/ia32-64/Gaussian/Rev-C.02/g16/l502.exe)
 Keep R1 ints in memory in symmetry-blocked form, NReq=834752.
 FoFCou: FMM=F IPFlag=           0 FMFlag=           0 FMFlg1=           0
         NFxFlg=           0 DoJE=F BraDBF=F KetDBF=F FulRan=T
         wScrn=  0.000000 ICntrl=       600 IOpCl=  0 I1Cent=           0 NGrid=           0
         NMat0=    1 NMatS0=    231 NMatT0=    0 NMatD0=    1 NMtDS0=    0 NMtDT0=    0
 Petite list used in FoFCou.
 Closed shell SCF:
 Using DIIS extrapolation, IDIIS=  1040.
 NGot=   536870912 LenX=   536853818 LenY=   536852936
 Requested convergence on RMS density matrix=1.00D-08 within 128 cycles.
 Requested convergence on MAX density matrix=1.00D-06.
 Requested convergence on             energy=1.00D-06.
 No special actions if energy rises.

 Cycle   1  Pass 1  IDiag  1:
 E= -591.172393020658    
 DIIS: error= 6.61D-06 at cycle   1 NSaved=   1.
 NSaved= 1 IEnMin= 1 EnMin= -591.172393020658     IErMin= 1 ErrMin= 6.61D-06
 ErrMax= 6.61D-06  0.00D+00 EMaxC= 1.00D-01 BMatC= 1.68D-09 BMatP= 1.68D-09
 IDIUse=1 WtCom= 1.00D+00 WtEn= 0.00D+00
 Coeff-Com:  0.100D+01
 Coeff:      0.100D+01
 Gap=     0.719 Goal=   None    Shift=    0.000
 RMSDP=3.21D-06 MaxDP=1.97D-05              OVMax= 0.00D+00

 Cycle   2  Pass 1  IDiag  1:
 E= -591.172393023830     Delta-E=       -0.000000003171 Rises=F Damp=F
 DIIS: error= 2.59D-06 at cycle   2 NSaved=   2.
 NSaved= 2 IEnMin= 2 EnMin= -591.172393023830     IErMin= 2 ErrMin= 2.59D-06
 ErrMax= 2.59D-06  0.00D+00 EMaxC= 1.00D-01 BMatC= 1.86D-10 BMatP= 1.68D-09
 IDIUse=1 WtCom= 1.00D+00 WtEn= 0.00D+00
 Coeff-Com: -0.333D+00 0.133D+01
 Coeff:     -0.333D+00 0.133D+01
 Gap=     0.719 Goal=   None    Shift=    0.000
 RMSDP=1.73D-06 MaxDP=1.12D-05 DE=-3.17D-09 OVMax= 0.00D+00

 Cycle   3  Pass 1  IDiag  1:
 E= -591.172393024404     Delta-E=       -0.000000000574 Rises=F Damp=F
 DIIS: error= 7.68D-07 at cycle   3 NSaved=   3.
 NSaved= 3 IEnMin= 3 EnMin= -591.172393024404     IErMin= 3 ErrMin= 7.68D-07
 ErrMax= 7.68D-07  0.00D+00 EMaxC= 1.00D-01 BMatC= 1.16D-11 BMatP= 1.86D-10
 IDIUse=1 WtCom= 1.00D+00 WtEn= 0.00D+00
 Coeff-Com:  0.531D-01-0.428D+00 0.137D+01
 Coeff:      0.531D-01-0.428D+00 0.137D+01
 Gap=     0.719 Goal=   None    Shift=    0.000
 RMSDP=5.64D-07 MaxDP=3.74D-06 DE=-5.74D-10 OVMax= 0.00D+00

 Cycle   4  Pass 1  IDiag  1:
 E= -591.172393024446     Delta-E=       -0.000000000043 Rises=F Damp=F
 DIIS: error= 1.20D-07 at cycle   4 NSaved=   4.
 NSaved= 4 IEnMin= 4 EnMin= -591.172393024446     IErMin= 4 ErrMin= 1.20D-07
 ErrMax= 1.20D-07  0.00D+00 EMaxC= 1.00D-01 BMatC= 4.74D-13 BMatP= 1.16D-11
 IDIUse=1 WtCom= 1.00D+00 WtEn= 0.00D+00
 Coeff-Com: -0.144D-01 0.163D+00-0.681D+00 0.153D+01
 Coeff:     -0.144D-01 0.163D+00-0.681D+00 0.153D+01
 Gap=     0.719 Goal=   None    Shift=    0.000
 RMSDP=1.17D-07 MaxDP=7.83D-07 DE=-4.27D-11 OVMax= 0.00D+00

 Cycle   5  Pass 1  IDiag  1:
 E= -591.172393024448     Delta-E=       -0.000000000002 Rises=F Damp=F
 DIIS: error= 2.65D-08 at cycle   5 NSaved=   5.
 NSaved= 5 IEnMin= 5 EnMin= -591.172393024448     IErMin= 5 ErrMin= 2.65D-08
 ErrMax= 2.65D-08  0.00D+00 EMaxC= 1.00D-01 BMatC= 1.18D-14 BMatP= 4.74D-13
 IDIUse=1 WtCom= 1.00D+00 WtEn= 0.00D+00
 Coeff-Com:  0.479D-02-0.593D-01 0.257D+00-0.663D+00 0.146D+01
 Coeff:      0.479D-02-0.593D-01 0.257D+00-0.663D+00 0.146D+01
 Gap=     0.719 Goal=   None    Shift=    0.000
 RMSDP=1.71D-08 MaxDP=1.10D-07 DE=-1.82D-12 OVMax= 0.00D+00

 Cycle   6  Pass 1  IDiag  1:
 E= -591.172393024448     Delta-E=        0.000000000000 Rises=F Damp=F
 DIIS: error= 4.10D-09 at cycle   6 NSaved=   6.
 NSaved= 6 IEnMin= 5 EnMin= -591.172393024448     IErMin= 6 ErrMin= 4.10D-09
 ErrMax= 4.10D-09  0.00D+00 EMaxC= 1.00D-01 BMatC= 4.86D-16 BMatP= 1.18D-14
 IDIUse=1 WtCom= 1.00D+00 WtEn= 0.00D+00
 Coeff-Com:  0.167D-03-0.142D-02 0.499D-02-0.367D-02-0.131D+00 0.113D+01
 Coeff:      0.167D-03-0.142D-02 0.499D-02-0.367D-02-0.131D+00 0.113D+01
 Gap=     0.719 Goal=   None    Shift=    0.000
 RMSDP=3.40D-09 MaxDP=2.00D-08 DE= 2.27D-13 OVMax= 0.00D+00

 SCF Done:  E(RHF) =  -591.172393024     A.U. after    6 cycles
            NFock=  6  Conv=0.34D-08     -V/T= 2.0166
 KE= 5.815309775090D+02 PE=-1.599250506172D+03 EE= 3.271150691059D+02
 Leave Link  502 at Sat Sep 12 17:07:27 2026, MaxMem=   536870912 cpu:               0.0 elap:               0.1
 (Enter /app1/ia32-64/Gaussian/Rev-C.02/g16/l701.exe)
 ... and contract with generalized density number  0.
 Compute integral first derivatives.
 Leave Link  701 at Sat Sep 12 17:07:27 2026, MaxMem=   536870912 cpu:               0.0 elap:               0.1
 (Enter /app1/ia32-64/Gaussian/Rev-C.02/g16/l702.exe)
 L702 exits ... SP integral derivatives will be done elsewhere.
 Leave Link  702 at Sat Sep 12 17:07:27 2026, MaxMem=   536870912 cpu:               0.0 elap:               0.0
 (Enter /app1/ia32-64/Gaussian/Rev-C.02/g16/l703.exe)
 Integral derivatives from FoFJK, PRISM(SPDF).
 Compute integral first derivatives, UseDBF=F ICtDFT=           0.
 Calling FoFJK, ICntrl=      2127 FMM=F ISym2X=1 I1Cent= 0 IOpClX= 0 NMat=1 NMatS=1 NMatT=0.
 FoFJK:  IHMeth= 1 ICntrl=    2127 DoSepK=F KAlg= 0 I1Cent=           0 FoldK=F
 IRaf=         0 NMat=       1 IRICut=       1 DoRegI=T DoRafI=F ISym2E= 1 IDoP0=0 IntGTp=1.
 FoFCou: FMM=F IPFlag=           0 FMFlag=      100000 FMFlg1=         800
         NFxFlg=           0 DoJE=F BraDBF=F KetDBF=F FulRan=T
         wScrn=  0.000000 ICntrl=      2127 IOpCl=  0 I1Cent=           0 NGrid=           0
         NMat0=    1 NMatS0=      1 NMatT0=    0 NMatD0=    1 NMtDS0=    0 NMtDT0=    0
 Petite list used in FoFCou.
 Leave Link  703 at Sat Sep 12 17:07:27 2026, MaxMem=   536870912 cpu:               0.1 elap:               0.1
 (Enter /app1/ia32-64/Gaussian/Rev-C.02/g16/l716.exe)
 Dipole        =-6.59818381D-02 8.84395203D-01-2.22044605D-16
 ***** Axes restored to original set *****
 -------------------------------------------------------------------
 Center     Atomic                   Forces (Hartrees/Bohr)
 Number     Number              X              Y              Z
 -------------------------------------------------------------------
      1        6          -0.000005274    0.000000000   -0.000004736
      2        9           0.000000472   -0.000000000    0.000009511
      3       17          -0.000001200   -0.000000000   -0.000001526
      4        1           0.000003001    0.000006435   -0.000001624
      5        1           0.000003001   -0.000006435   -0.000001624
 -------------------------------------------------------------------
 Cartesian Forces:  Max     0.000009511 RMS     0.000004089
 Leave Link  716 at Sat Sep 12 17:07:27 2026, MaxMem=   536870912 cpu:               0.0 elap:               0.0
 (Enter /app1/ia32-64/Gaussian/Rev-C.02/g16/l103.exe)

 GradGradGradGradGradGradGradGradGradGradGradGradGradGradGradGradGradGrad
 Berny optimization.
 Using GEDIIS/GDIIS optimizer.
 FormGI is forming the generalized inverse of G from B-inverse, IUseBI=4.
 Internal  Forces:  Max     0.000009513 RMS     0.000003853
 Search for a local minimum.
 Step number   6 out of a maximum of   24
 All quantities printed in internal units (Hartrees-Bohrs-Radians)
 RMS Force = .38526D-05 SwitMx=.10000D-02 MixMth= 2
 Mixed Optimization -- En-DIIS/RFO-DIIS
 Swapping is turned off.
 Update second derivatives using D2CorX and points    1    2    3    4    5
                                                      6
 DE= -1.08D-08 DEPred=-1.22D-08 R= 8.83D-01
 Trust test= 8.83D-01 RLast= 3.80D-04 DXMaxT set to 4.09D-01
 The second derivative matrix:
                          R1        R2        R3        R4        A1
           R1           0.55311
           R2           0.03411   0.33507
           R3           0.02819   0.00496   0.37657
           R4           0.02819   0.00496   0.02844   0.37657
           A1          -0.04135  -0.01774  -0.01575  -0.01575   0.18026
           A2           0.01283  -0.00161  -0.02259  -0.02259   0.00419
           A3           0.01989  -0.01452  -0.00528  -0.00528   0.00499
           A4           0.00374   0.01066   0.02296   0.02296  -0.01230
           A5          -0.01478   0.01609   0.00371   0.00371  -0.01527
           A6          -0.00324  -0.00687   0.01042   0.01042   0.05972
           D1          -0.03919  -0.02544  -0.00677  -0.00677  -0.00661
           D2           0.03112   0.02139   0.00469   0.00469   0.00532
           D3          -0.00596   0.02597  -0.02701  -0.02701  -0.00045
           D4          -0.03708   0.00459  -0.03170  -0.03170  -0.00578
                          A2        A3        A4        A5        A6
           A2           0.13805
           A3          -0.01872   0.15115
           A4           0.02778   0.02170   0.13299
           A5           0.02357   0.01208  -0.02351   0.14566
           A6          -0.01033  -0.00683   0.00397   0.00815   0.13198
           D1          -0.00350   0.00061  -0.00863  -0.00767   0.02574
           D2           0.00279  -0.00086   0.00726   0.00670  -0.02118
           D3          -0.00387  -0.01571   0.01075   0.01962  -0.01029
           D4          -0.00666  -0.01485   0.00349   0.01292   0.01089
                          D1        D2        D3        D4
           D1           0.01991
           D2          -0.01457   0.01444
           D3          -0.01014   0.00881   0.02399
           D4           0.00443  -0.00328   0.01283   0.01846
 ITU=  0  0  1  1  1  0
     Eigenvalues ---    0.06627   0.07540   0.09449   0.16302   0.17297
     Eigenvalues ---    0.33792   0.34813   0.39726   0.57341
 En-DIIS/RFO-DIIS/Sim-DIIS IScMMF=       -3 using points:     6    5    4    3
 RFO step:  Lambda= 0.00000000D+00.
 NNeg= 0 NGDIIS= 4 SimSw=  2.50D-01 Rises=F DC= -1.08D-08 SmlDif=  1.00D-05
 NRisDI= 0 DoIntr=F SqrtH=F CThrHd= 10.0 CDAdj=  3.0
 RMS Error=  0.1875637876D-04 NUsed= 4 OKEnD=F EnDIS=F
 InvSVX:  RCond= 1.73D-07 Info=           0 Equed=N FErr=  2.17D-15 BErr=  7.40D-17
 DidBck=F Rises=F RFO-DIIS coefs:    0.76912    0.19005    0.03663    0.00420
 Iteration  1 RMS(Cart)=  0.00001518 RMS(Int)=  0.00000002
 Iteration  2 RMS(Cart)=  0.00000000 RMS(Int)=  0.00000002
 ITry= 1 IFail=0 DXMaxC= 2.82D-05 DCOld= 1.00D+10 DXMaxT= 4.09D-01 DXLimC= 3.00D+00 Rises=F
 ClnCor:  largest displacement from symmetrization is 1.07D-07 for atom     5.
 Variable       Old X    -DE/DX   Delta X   Delta X   Delta X     New X
                                 (Linear)    (Quad)   (Total)
    R1        2.58421   0.00001   0.00001   0.00001   0.00001   2.58422
    R2        3.44971  -0.00000   0.00001  -0.00001   0.00000   3.44971
    R3        2.08021  -0.00001  -0.00001  -0.00001  -0.00001   2.08020
    R4        2.08021  -0.00001  -0.00001  -0.00001  -0.00001   2.08020
    A1        1.92837   0.00000   0.00001  -0.00000   0.00001   1.92838
    A2        1.94108   0.00000   0.00002   0.00000   0.00002   1.94110
    A3        1.94108   0.00000   0.00002   0.00000   0.00002   1.94110
    A4        1.86438  -0.00000  -0.00002   0.00000  -0.00001   1.86437
    A5        1.86438  -0.00000  -0.00002   0.00000  -0.00001   1.86437
    A6        1.92150  -0.00000  -0.00002  -0.00000  -0.00002   1.92148
    D1       -2.10551  -0.00000  -0.00001   0.00000  -0.00001  -2.10552
    D2        2.10551   0.00000   0.00001  -0.00000   0.00001   2.10552
    D3       -2.15960  -0.00000  -0.00002  -0.00000  -0.00002  -2.15962
    D4        2.01808  -0.00000  -0.00004   0.00000  -0.00003   2.01805
         Item               Value     Threshold  Converged?
 Maximum Force            0.000010     0.000015     YES
 RMS     Force            0.000004     0.000010     YES
 Maximum Displacement     0.000028     0.000060     YES
 RMS     Displacement     0.000015     0.000040     YES
 Predicted change in Energy=-3.622623D-10
 Optimization completed.
    -- Stationary point found.
                           ----------------------------
                           !   Optimized Parameters   !
                           ! (Angstroms and Degrees)  !
 --------------------------                            --------------------------
 ! Name  Definition              Value          Derivative Info.                !
 --------------------------------------------------------------------------------
 ! R1    R(1,2)                  1.3675         -DE/DX =    0.0                 !
 ! R2    R(1,3)                  1.8255         -DE/DX =    0.0                 !
 ! R3    R(1,4)                  1.1008         -DE/DX =    0.0                 !
 ! R4    R(1,5)                  1.1008         -DE/DX =    0.0                 !
 ! A1    A(2,1,3)              110.4874         -DE/DX =    0.0                 !
 ! A2    A(2,1,4)              111.2159         -DE/DX =    0.0                 !
 ! A3    A(2,1,5)              111.2159         -DE/DX =    0.0                 !
 ! A4    A(3,1,4)              106.8214         -DE/DX =    0.0                 !
 ! A5    A(3,1,5)              106.8214         -DE/DX =    0.0                 !
 ! A6    A(4,1,5)              110.0939         -DE/DX =    0.0                 !
 ! D1    D(2,1,4,3)           -120.6366         -DE/DX =    0.0                 !
 ! D2    D(2,1,5,3)            120.6366         -DE/DX =    0.0                 !
 ! D3    D(2,1,5,4)           -123.7359         -DE/DX =    0.0                 !
 ! D4    D(3,1,5,4)            115.6275         -DE/DX =    0.0                 !
 --------------------------------------------------------------------------------
 Lowest energy point so far.  Saving SCF results.
 Largest change from initial coordinates is atom    2       0.044 Angstoms.
 GradGradGradGradGradGradGradGradGradGradGradGradGradGradGradGradGradGrad

 Leave Link  103 at Sat Sep 12 17:07:27 2026, MaxMem=   536870912 cpu:               0.0 elap:               0.0
 (Enter /app1/ia32-64/Gaussian/Rev-C.02/g16/l202.exe)
                          Input orientation:                          
 ---------------------------------------------------------------------
 Center     Atomic      Atomic             Coordinates (Angstroms)
 Number     Number       Type             X           Y           Z
 ---------------------------------------------------------------------
      1          6           0       -0.018764    0.000000    0.020392
      2          9           0       -0.011730   -0.000000    1.387879
      3         17           0        1.687970   -0.000000   -0.627325
      4          1           0       -0.509716   -0.902239   -0.375449
      5          1           0       -0.509716    0.902239   -0.375449
 ---------------------------------------------------------------------
                    Distance matrix (angstroms):
                    1          2          3          4          5
     1  C    0.000000
     2  F    1.367506   0.000000
     3  Cl   1.825507   2.636291   0.000000
     4  H    1.100800   2.042389   2.388996   0.000000
     5  H    1.100800   2.042389   2.388996   1.804479   0.000000
 Stoichiometry    CH2ClF
 Framework group  CS[SG(CClF),X(H2)]
 Deg. of freedom     6
 Full point group                 CS      NOp   2
 RotChk:  IX=0 Diff= 3.97D-16
 Largest Abelian subgroup         CS      NOp   2
 Largest concise Abelian subgroup CS      NOp   2
                         Standard orientation:                         
 ---------------------------------------------------------------------
 Center     Atomic      Atomic             Coordinates (Angstroms)
 Number     Number       Type             X           Y           Z
 ---------------------------------------------------------------------
      1          6           0       -0.000000    0.826482    0.000000
      2          9           0        1.367141    0.794898    0.000000
      3         17           0       -0.678256   -0.868347   -0.000000
      4          1           0       -0.386963    1.324463    0.902239
      5          1           0       -0.386963    1.324463   -0.902239
 ---------------------------------------------------------------------
 Rotational constants (GHZ):          41.1011108           5.4429136           4.9612531
 Leave Link  202 at Sat Sep 12 17:07:28 2026, MaxMem=   536870912 cpu:               0.0 elap:               0.0
 (Enter /app1/ia32-64/Gaussian/Rev-C.02/g16/l601.exe)
 Copying SCF densities to generalized density rwf, IOpCl= 0 IROHF=0.

 **********************************************************************

            Population analysis using the SCF Density.

 **********************************************************************

 Orbital symmetries:
       Occupied  (A') (A') (A') (A') (A') (A') (A") (A') (A') (A')
                 (A") (A') (A') (A") (A') (A') (A")
       Virtual   (A') (A') (A") (A')
 The electronic state is 1-A'.
 Alpha  occ. eigenvalues -- -103.68934 -25.99864 -11.20765 -10.37377  -7.81785
 Alpha  occ. eigenvalues --   -7.81234  -7.81227  -1.54407  -1.05540  -0.86485
 Alpha  occ. eigenvalues --   -0.67104  -0.61919  -0.57626  -0.48023  -0.43686
 Alpha  occ. eigenvalues --   -0.39737  -0.38755
 Alpha virt. eigenvalues --    0.33112   0.55657   0.62926   0.63427
          Condensed to atoms (all electrons):
               1          2          3          4          5
     1  C    4.735229   0.222183   0.212994   0.372647   0.372647
     2  F    0.222183   8.928529  -0.012073  -0.013538  -0.013538
     3  Cl   0.212994  -0.012073  17.025843  -0.023766  -0.023766
     4  H    0.372647  -0.013538  -0.023766   0.585527  -0.024117
     5  H    0.372647  -0.013538  -0.023766  -0.024117   0.585527
 Mulliken charges:
               1
     1  C    0.084300
     2  F   -0.111563
     3  Cl  -0.179232
     4  H    0.103247
     5  H    0.103247
 Sum of Mulliken charges =  -0.00000
 Mulliken charges with hydrogens summed into heavy atoms:
               1
     1  C    0.290795
     2  F   -0.111563
     3  Cl  -0.179232
 Electronic spatial extent (au):  <R**2>=            237.7798
 Charge=             -0.0000 electrons
 Dipole moment (field-independent basis, Debye):
    X=             -0.1677    Y=              2.2479    Z=             -0.0000  Tot=              2.2542
 Quadrupole moment (field-independent basis, Debye-Ang):
   XX=            -23.8096   YY=            -21.5854   ZZ=            -21.3856
   XY=             -1.6442   XZ=              0.0000   YZ=             -0.0000
 Traceless Quadrupole moment (field-independent basis, Debye-Ang):
   XX=             -1.5494   YY=              0.6748   ZZ=              0.8746
   XY=             -1.6442   XZ=              0.0000   YZ=             -0.0000
 Octapole moment (field-independent basis, Debye-Ang**2):
  XXX=              8.4172  YYY=              4.5232  ZZZ=              0.0000  XYY=              2.2612
  XXY=              0.5575  XXZ=             -0.0000  XZZ=              2.8993  YZZ=              2.3652
  YYZ=             -0.0000  XYZ=              0.0000
 Hexadecapole moment (field-independent basis, Debye-Ang**3):
 XXXX=            -95.6636 YYYY=           -115.3929 ZZZZ=            -22.7052 XXXY=            -32.6697
 XXXZ=              0.0000 YYYX=            -30.7565 YYYZ=             -0.0000 ZZZX=              0.0000
 ZZZY=             -0.0000 XXYY=            -35.7152 XXZZ=            -19.4660 YYZZ=            -22.4905
 XXYZ=             -0.0000 YYXZ=              0.0000 ZZXY=            -11.1743
 N-N= 9.943206653224D+01 E-N=-1.599250506180D+03  KE= 5.815309775090D+02
 Symmetry A'   KE= 5.300923838857D+02
 Symmetry A"   KE= 5.143859362329D+01
 No NMR shielding tensors so no spin-rotation constants.
 Leave Link  601 at Sat Sep 12 17:07:28 2026, MaxMem=   536870912 cpu:               0.0 elap:               0.1
 (Enter /app1/ia32-64/Gaussian/Rev-C.02/g16/l9999.exe)
 Unable to Open any file for archive entry.
 1\1\GINC-CNODE-33-43-49\FOpt\RHF\STO-3G\C1H2Cl1F1\ZHANGXUBO\12-Sep-202
 6\0\\#p hf/sto-3g opt=tight scf=tight\\CH2FCl (chlorofluoromethane) op
 t / HF/STO-3G (minimal accuracy)\\0,1\C,-0.0187635169,0.,0.0203915453\
 F,-0.0117297003,0.,1.3878792296\Cl,1.6879702858,0.,-0.6273254861\H,-0.
 5097159925,-0.9022393396,-0.3754494159\H,-0.5097159925,0.9022393396,-0
 .3754494159\\Version=ES64L-G16RevC.02\State=1-A'\HF=-591.172393\RMSD=3
 .396e-09\RMSF=4.089e-06\Dipole=-0.883068,0.,-0.0818497\Quadrupole=0.45
 72807,0.6502598,-1.1075405,0.,1.2513476,0.\PG=CS [SG(C1Cl1F1),X(H2)]\\
 @
 The archive entry for this job was punched.


 THERE IS NO SCIENCE WITHOUT FANCY, NOR ART WITHOUT FACTS.
     -- VLADIMIR NABAKOV
 Job cpu time:       0 days  0 hours  0 minutes  3.2 seconds.
 Elapsed time:       0 days  0 hours  0 minutes  4.3 seconds.
 File lengths (MBytes):  RWF=      6 Int=      0 D2E=      0 Chk=      1 Scr=      1
 Normal termination of Gaussian 16 at Sat Sep 12 17:07:28 2026.
