PYTHONPATH: Undefined variable.
 Entering Gaussian System, Link 0=/app1/ia32-64/Gaussian/Rev-C.02/g16/g16
 Initial command:
 /app1/ia32-64/Gaussian/Rev-C.02/g16/l1.exe "/scratch/1004930.venus01/Gau-27975.inp" -scrdir="/scratch/1004930.venus01/"
 Entering Link 1 = /app1/ia32-64/Gaussian/Rev-C.02/g16/l1.exe PID=     27995.
  
 Copyright (c) 1988-2021, Gaussian, Inc.  All Rights Reserved.
  
 This is part of the Gaussian(R) 16 program.  It is based on
 the Gaussian(R) 09 system (copyright 2009, Gaussian, Inc.),
 the Gaussian(R) 03 system (copyright 2003, Gaussian, Inc.),
 the Gaussian(R) 98 system (copyright 1998, Gaussian, Inc.),
 the Gaussian(R) 94 system (copyright 1995, Gaussian, Inc.),
 the Gaussian 92(TM) system (copyright 1992, Gaussian, Inc.),
 the Gaussian 90(TM) system (copyright 1990, Gaussian, Inc.),
 the Gaussian 88(TM) system (copyright 1988, Gaussian, Inc.),
 the Gaussian 86(TM) system (copyright 1986, Carnegie Mellon
 University), and the Gaussian 82(TM) system (copyright 1983,
 Carnegie Mellon University). Gaussian is a federally registered
 trademark of Gaussian, Inc.
  
 This software contains proprietary and confidential information,
 including trade secrets, belonging to Gaussian, Inc.
  
 This software is provided under written license and may be
 used, copied, transmitted, or stored only in accord with that
 written license.
  
 The following legend is applicable only to US Government
 contracts under FAR:
  
                    RESTRICTED RIGHTS LEGEND
  
 Use, reproduction and disclosure by the US Government is
 subject to restrictions as set forth in subparagraphs (a)
 and (c) of the Commercial Computer Software - Restricted
 Rights clause in FAR 52.227-19.
  
 Gaussian, Inc.
 340 Quinnipiac St., Bldg. 40, Wallingford CT 06492
  
  
 ---------------------------------------------------------------
 Warning -- This program may not be used in any manner that
 competes with the business of Gaussian, Inc. or will provide
 assistance to any competitor of Gaussian, Inc.  The licensee
 of this program is prohibited from giving any competitor of
 Gaussian, Inc. access to this program.  By using this program,
 the user acknowledges that Gaussian, Inc. is engaged in the
 business of creating and licensing software in the field of
 computational chemistry and represents and warrants to the
 licensee that it is not a competitor of Gaussian, Inc. and that
 it will not use this program in any manner prohibited above.
 ---------------------------------------------------------------
  

 Cite this work as:
 Gaussian 16, Revision C.02,
 M. J. Frisch, G. W. Trucks, H. B. Schlegel, G. E. Scuseria, 
 M. A. Robb, J. R. Cheeseman, G. Scalmani, V. Barone, 
 G. A. Petersson, H. Nakatsuji, X. Li, M. Caricato, A. V. Marenich, 
 J. Bloino, B. G. Janesko, R. Gomperts, B. Mennucci, H. P. Hratchian, 
 J. V. Ortiz, A. F. Izmaylov, J. L. Sonnenberg, D. Williams-Young, 
 F. Ding, F. Lipparini, F. Egidi, J. Goings, B. Peng, A. Petrone, 
 T. Henderson, D. Ranasinghe, V. G. Zakrzewski, J. Gao, N. Rega, 
 G. Zheng, W. Liang, M. Hada, M. Ehara, K. Toyota, R. Fukuda, 
 J. Hasegawa, M. Ishida, T. Nakajima, Y. Honda, O. Kitao, H. Nakai, 
 T. Vreven, K. Throssell, J. A. Montgomery, Jr., J. E. Peralta, 
 F. Ogliaro, M. J. Bearpark, J. J. Heyd, E. N. Brothers, K. N. Kudin, 
 V. N. Staroverov, T. A. Keith, R. Kobayashi, J. Normand, 
 K. Raghavachari, A. P. Rendell, J. C. Burant, S. S. Iyengar, 
 J. Tomasi, M. Cossi, J. M. Millam, M. Klene, C. Adamo, R. Cammi, 
 J. W. Ochterski, R. L. Martin, K. Morokuma, O. Farkas, 
 J. B. Foresman, and D. J. Fox, Gaussian, Inc., Wallingford CT, 2019.
 
 ******************************************
 Gaussian 16:  ES64L-G16RevC.02  7-Dec-2021
                12-Sep-2026 
 ******************************************
 %chk=ch2fcl_b3lyp_ccpvdz.chk
 %mem=8GB
 %nprocshared=1
 Will use up to    1 processors via shared memory.
 ------------------------------------------------------
 #p b3lyp/cc-pVDZ opt=tight freq pop=full int=ultrafine
 ------------------------------------------------------
 1/7=10,18=20,19=15,26=4,38=1/1,3;
 2/9=110,12=2,17=6,18=5,40=1/2;
 3/5=16,11=2,25=1,30=1,71=1,74=-5,75=-5/1,2,3;
 4//1;
 5/5=2,38=5/2;
 6/7=3,28=1/1;
 7//1,2,3,16;
 1/7=10,18=20,19=15,26=4/3(2);
 2/9=110/2;
 99//99;
 2/9=110/2;
 3/5=16,11=2,25=1,30=1,71=1,74=-5,75=-5/1,2,3;
 4/5=5,16=3,69=1/1;
 5/5=2,38=5/2;
 7//1,2,3,16;
 1/7=10,18=20,19=15,26=4/3(-5);
 2/9=110/2;
 6/7=3,19=2,28=1/1;
 99/9=1/99;
 Leave Link    1 at Sat Sep 12 17:34:27 2026, MaxMem=  1073741824 cpu:               0.0 elap:               0.1
 (Enter /app1/ia32-64/Gaussian/Rev-C.02/g16/l101.exe)
 ----------------------------------------------------------------------
 CH2FCl opt+freq / B3LYP/cc-pVDZ (reasonable accuracy) -- also used for
  density/ESP map and BDE
 ----------------------------------------------------------------------
 Symbolic Z-matrix:
 Charge =  0 Multiplicity = 1
 C
 F                    1     1.36 
 Cl                   1     1.76     2     110. 
 H                    1     1.09     2     110.     3     120.     0
 H                    1     1.09     2     110.     3    -120.     0
 
 ITRead=  0  0  0  0  0
 MicOpt= -1 -1 -1 -1 -1
 NAtoms=      5 NQM=        5 NQMF=       0 NMMI=      0 NMMIF=      0
                NMic=       0 NMicF=      0.
                    Isotopes and Nuclear Properties:
 (Nuclear quadrupole moments (NQMom) in fm**2, nuclear magnetic moments (NMagM)
  in nuclear magnetons)

  Atom         1           2           3           4           5
 IAtWgt=          12          19          35           1           1
 AtmWgt=  12.0000000  18.9984032  34.9688527   1.0078250   1.0078250
 NucSpn=           0           1           3           1           1
 AtZEff=  -0.0000000  -0.0000000  -0.0000000  -0.0000000  -0.0000000
 NQMom=    0.0000000   0.0000000  -8.1650000   0.0000000   0.0000000
 NMagM=    0.0000000   2.6288670   0.8218740   2.7928460   2.7928460
 AtZNuc=   6.0000000   9.0000000  17.0000000   1.0000000   1.0000000
 Leave Link  101 at Sat Sep 12 17:34:27 2026, MaxMem=  1073741824 cpu:               0.2 elap:               0.3
 (Enter /app1/ia32-64/Gaussian/Rev-C.02/g16/l103.exe)

 GradGradGradGradGradGradGradGradGradGradGradGradGradGradGradGradGradGrad
 Berny optimization.
 Initialization pass.
                           ----------------------------
                           !    Initial Parameters    !
                           ! (Angstroms and Degrees)  !
 --------------------------                            --------------------------
 ! Name  Definition              Value          Derivative Info.                !
 --------------------------------------------------------------------------------
 ! R1    R(1,2)                  1.36           estimate D2E/DX2                !
 ! R2    R(1,3)                  1.76           estimate D2E/DX2                !
 ! R3    R(1,4)                  1.09           estimate D2E/DX2                !
 ! R4    R(1,5)                  1.09           estimate D2E/DX2                !
 ! A1    A(2,1,3)              110.0            estimate D2E/DX2                !
 ! A2    A(2,1,4)              110.0            estimate D2E/DX2                !
 ! A3    A(2,1,5)              110.0            estimate D2E/DX2                !
 ! A4    A(3,1,4)              108.9373         estimate D2E/DX2                !
 ! A5    A(3,1,5)              108.9373         estimate D2E/DX2                !
 ! A6    A(4,1,5)              108.9373         estimate D2E/DX2                !
 ! D1    D(2,1,4,3)           -120.6423         estimate D2E/DX2                !
 ! D2    D(2,1,5,3)            120.6423         estimate D2E/DX2                !
 ! D3    D(2,1,5,4)           -120.6423         estimate D2E/DX2                !
 ! D4    D(3,1,5,4)            118.7153         estimate D2E/DX2                !
 --------------------------------------------------------------------------------
 Trust Radius=3.00D-01 FncErr=1.00D-07 GrdErr=1.00D-06 EigMax=2.50D+02 EigMin=1.00D-04
 Number of steps in this run=     24 maximum allowed number of steps=    100.
 GradGradGradGradGradGradGradGradGradGradGradGradGradGradGradGradGradGrad

 Leave Link  103 at Sat Sep 12 17:34:27 2026, MaxMem=  1073741824 cpu:               0.0 elap:               0.0
 (Enter /app1/ia32-64/Gaussian/Rev-C.02/g16/l202.exe)
                          Input orientation:                          
 ---------------------------------------------------------------------
 Center     Atomic      Atomic             Coordinates (Angstroms)
 Number     Number       Type             X           Y           Z
 ---------------------------------------------------------------------
      1          6           0        0.000000    0.000000    0.000000
      2          9           0        0.000000    0.000000    1.360000
      3         17           0        1.653859    0.000000   -0.601955
      4          1           0       -0.512132   -0.887039   -0.372802
      5          1           0       -0.512132    0.887039   -0.372802
 ---------------------------------------------------------------------
                    Distance matrix (angstroms):
                    1          2          3          4          5
     1  C    0.000000
     2  F    1.360000   0.000000
     3  Cl   1.760000   2.566032   0.000000
     4  H    1.090000   2.012889   2.351780   0.000000
     5  H    1.090000   2.012889   2.351780   1.774079   0.000000
 Stoichiometry    CH2ClF
 Framework group  CS[SG(CClF),X(H2)]
 Deg. of freedom     6
 Full point group                 CS      NOp   2
 Largest Abelian subgroup         CS      NOp   2
 Largest concise Abelian subgroup CS      NOp   2
                         Standard orientation:                         
 ---------------------------------------------------------------------
 Center     Atomic      Atomic             Coordinates (Angstroms)
 Number     Number       Type             X           Y           Z
 ---------------------------------------------------------------------
      1          6           0        0.000000    0.797667    0.000000
      2          9           0        1.358529    0.734425    0.000000
      3         17           0       -0.678211   -0.826411    0.000000
      4          1           0       -0.348584    1.326581    0.887039
      5          1           0       -0.348584    1.326581   -0.887039
 ---------------------------------------------------------------------
 Rotational constants (GHZ):          41.8810129           5.7642791           5.2333292
 Leave Link  202 at Sat Sep 12 17:34:27 2026, MaxMem=  1073741824 cpu:               0.0 elap:               0.0
 (Enter /app1/ia32-64/Gaussian/Rev-C.02/g16/l301.exe)
 Standard basis: CC-pVDZ (5D, 7F)
 Ernie: Thresh=  0.10000D-02 Tol=  0.10000D-05 Strict=F.
 Ernie:  14 primitive shells out of 104 were deleted.
 There are    41 symmetry adapted cartesian basis functions of A'  symmetry.
 There are    18 symmetry adapted cartesian basis functions of A"  symmetry.
 There are    38 symmetry adapted basis functions of A'  symmetry.
 There are    18 symmetry adapted basis functions of A"  symmetry.
    56 basis functions,   151 primitive gaussians,    59 cartesian basis functions
    17 alpha electrons       17 beta electrons
       nuclear repulsion energy       101.7385101180 Hartrees.
 IExCor=  402 DFT=T Ex+Corr=B3LYP ExCW=0 ScaHFX=  0.200000
 ScaDFX=  0.800000  0.720000  1.000000  0.810000 ScalE2=  1.000000  1.000000
 IRadAn=      5 IRanWt=     -1 IRanGd=            0 ICorTp=0 IEmpDi=  4
 NAtoms=    5 NActive=    5 NUniq=    4 SFac= 1.56D+00 NAtFMM=   60 NAOKFM=F Big=F
 Integral buffers will be    131072 words long.
 Raffenetti 2 integral format.
 Two-electron integral symmetry is turned on.
 Leave Link  301 at Sat Sep 12 17:34:28 2026, MaxMem=  1073741824 cpu:               0.0 elap:               0.0
 (Enter /app1/ia32-64/Gaussian/Rev-C.02/g16/l302.exe)
 NPDir=0 NMtPBC=     1 NCelOv=     1 NCel=       1 NClECP=     1 NCelD=      1
         NCelK=      1 NCelE2=     1 NClLst=     1 CellRange=     0.0.
 One-electron integrals computed using PRISM.
 One-electron integral symmetry used in STVInt
 NBasis=    56 RedAO= T EigKep=  1.46D-02  NBF=    38    18
 NBsUse=    56 1.00D-06 EigRej= -1.00D+00 NBFU=    38    18
 Precomputing XC quadrature grid using
 IXCGrd= 4 IRadAn=           5 IRanWt=          -1 IRanGd=           0 AccXCQ= 0.00D+00.
 Generated NRdTot=       0 NPtTot=           0 NUsed=           0 NTot=          32
 NSgBfM=    59    59    59    59    59 MxSgAt=     5 MxSgA2=     5.
 Leave Link  302 at Sat Sep 12 17:34:28 2026, MaxMem=  1073741824 cpu:               0.1 elap:               0.1
 (Enter /app1/ia32-64/Gaussian/Rev-C.02/g16/l303.exe)
 DipDrv:  MaxL=1.
 Leave Link  303 at Sat Sep 12 17:34:28 2026, MaxMem=  1073741824 cpu:               0.0 elap:               0.0
 (Enter /app1/ia32-64/Gaussian/Rev-C.02/g16/l401.exe)
 ExpMin= 1.22D-01 ExpMax= 1.28D+05 ExpMxC= 1.24D+03 IAcc=3 IRadAn=         5 AccDes= 0.00D+00
 Harris functional with IExCor=  402 and IRadAn=       5 diagonalized for initial guess.
 HarFok:  IExCor=  402 AccDes= 0.00D+00 IRadAn=         5 IDoV= 1 UseB2=F ITyADJ=14
 ICtDFT=  3500011 ScaDFX=  1.000000  1.000000  1.000000  1.000000
 FoFCou: FMM=F IPFlag=           0 FMFlag=      100000 FMFlg1=           0
         NFxFlg=           0 DoJE=T BraDBF=F KetDBF=T FulRan=T
         wScrn=  0.000000 ICntrl=       500 IOpCl=  0 I1Cent=   200000004 NGrid=           0
         NMat0=    1 NMatS0=      1 NMatT0=    0 NMatD0=    1 NMtDS0=    0 NMtDT0=    0
 Petite list used in FoFCou.
 Harris En= -599.271524613727    
 JPrj=0 DoOrth=F DoCkMO=F.
 Initial guess orbital symmetries:
       Occupied  (A') (A') (A') (A') (A') (A") (A') (A') (A') (A')
                 (A') (A") (A') (A") (A') (A') (A")
       Virtual   (A') (A') (A') (A") (A') (A") (A') (A') (A') (A")
                 (A') (A") (A') (A") (A') (A') (A") (A') (A') (A")
                 (A') (A") (A') (A') (A") (A") (A') (A') (A') (A")
                 (A') (A') (A") (A') (A") (A') (A') (A") (A')
 The electronic state of the initial guess is 1-A'.
 Leave Link  401 at Sat Sep 12 17:34:28 2026, MaxMem=  1073741824 cpu:               0.2 elap:               0.2
 (Enter /app1/ia32-64/Gaussian/Rev-C.02/g16/l502.exe)
 Keep R1 ints in memory in symmetry-blocked form, NReq=2160176.
 FoFCou: FMM=F IPFlag=           0 FMFlag=           0 FMFlg1=           0
         NFxFlg=           0 DoJE=F BraDBF=F KetDBF=F FulRan=T
         wScrn=  0.000000 ICntrl=       600 IOpCl=  0 I1Cent=           0 NGrid=           0
         NMat0=    1 NMatS0=   1596 NMatT0=    0 NMatD0=    1 NMtDS0=    0 NMtDT0=    0
 Petite list used in FoFCou.
 Closed shell SCF:
 Using DIIS extrapolation, IDIIS=  1040.
 NGot=  1073741824 LenX=  1073079033 LenY=  1073075111
 Requested convergence on RMS density matrix=1.00D-08 within 128 cycles.
 Requested convergence on MAX density matrix=1.00D-06.
 Requested convergence on             energy=1.00D-06.
 No special actions if energy rises.
 Integral accuracy reduced to 1.0D-05 until final iterations.

 Cycle   1  Pass 0  IDiag  1:
 E= -599.339823404823    
 DIIS: error= 1.36D-02 at cycle   1 NSaved=   1.
 NSaved= 1 IEnMin= 1 EnMin= -599.339823404823     IErMin= 1 ErrMin= 1.36D-02
 ErrMax= 1.36D-02  0.00D+00 EMaxC= 1.00D-01 BMatC= 2.97D-02 BMatP= 2.97D-02
 IDIUse=3 WtCom= 8.64D-01 WtEn= 1.36D-01
 Coeff-Com:  0.100D+01
 Coeff-En:   0.100D+01
 Coeff:      0.100D+01
 Gap=     0.362 Goal=   None    Shift=    0.000
 GapD=    0.362 DampG=1.000 DampE=0.500 DampFc=0.5000 IDamp=-1.
 Damping current iteration by 5.00D-01
 RMSDP=4.82D-03 MaxDP=6.46D-02              OVMax= 8.37D-02

 Cycle   2  Pass 0  IDiag  1:
 E= -599.348448052986     Delta-E=       -0.008624648163 Rises=F Damp=T
 DIIS: error= 4.82D-03 at cycle   2 NSaved=   2.
 NSaved= 2 IEnMin= 2 EnMin= -599.348448052986     IErMin= 2 ErrMin= 4.82D-03
 ErrMax= 4.82D-03  0.00D+00 EMaxC= 1.00D-01 BMatC= 2.93D-03 BMatP= 2.97D-02
 IDIUse=3 WtCom= 9.52D-01 WtEn= 4.82D-02
 Coeff-Com:  0.897D-01 0.910D+00
 Coeff-En:   0.153D+00 0.847D+00
 Coeff:      0.928D-01 0.907D+00
 Gap=     0.376 Goal=   None    Shift=    0.000
 RMSDP=1.07D-03 MaxDP=1.23D-02 DE=-8.62D-03 OVMax= 5.62D-02

 Cycle   3  Pass 0  IDiag  1:
 E= -599.360417318930     Delta-E=       -0.011969265943 Rises=F Damp=F
 DIIS: error= 4.01D-03 at cycle   3 NSaved=   3.
 NSaved= 3 IEnMin= 3 EnMin= -599.360417318930     IErMin= 3 ErrMin= 4.01D-03
 ErrMax= 4.01D-03  0.00D+00 EMaxC= 1.00D-01 BMatC= 9.29D-04 BMatP= 2.93D-03
 IDIUse=3 WtCom= 9.60D-01 WtEn= 4.01D-02
 Coeff-Com: -0.635D-01 0.331D+00 0.732D+00
 Coeff-En:   0.000D+00 0.000D+00 0.100D+01
 Coeff:     -0.610D-01 0.318D+00 0.743D+00
 Gap=     0.334 Goal=   None    Shift=    0.000
 RMSDP=3.92D-04 MaxDP=7.02D-03 DE=-1.20D-02 OVMax= 8.19D-03

 Cycle   4  Pass 0  IDiag  1:
 E= -599.360981957471     Delta-E=       -0.000564638542 Rises=F Damp=F
 DIIS: error= 1.21D-03 at cycle   4 NSaved=   4.
 NSaved= 4 IEnMin= 4 EnMin= -599.360981957471     IErMin= 4 ErrMin= 1.21D-03
 ErrMax= 1.21D-03  0.00D+00 EMaxC= 1.00D-01 BMatC= 9.65D-05 BMatP= 9.29D-04
 IDIUse=3 WtCom= 9.88D-01 WtEn= 1.21D-02
 Coeff-Com: -0.282D-01 0.115D+00 0.350D+00 0.563D+00
 Coeff-En:   0.000D+00 0.000D+00 0.000D+00 0.100D+01
 Coeff:     -0.279D-01 0.114D+00 0.346D+00 0.569D+00
 Gap=     0.336 Goal=   None    Shift=    0.000
 RMSDP=1.64D-04 MaxDP=2.91D-03 DE=-5.65D-04 OVMax= 3.48D-03

 Cycle   5  Pass 0  IDiag  1:
 E= -599.361059956925     Delta-E=       -0.000077999454 Rises=F Damp=F
 DIIS: error= 3.85D-04 at cycle   5 NSaved=   5.
 NSaved= 5 IEnMin= 5 EnMin= -599.361059956925     IErMin= 5 ErrMin= 3.85D-04
 ErrMax= 3.85D-04  0.00D+00 EMaxC= 1.00D-01 BMatC= 1.02D-05 BMatP= 9.65D-05
 IDIUse=3 WtCom= 9.96D-01 WtEn= 3.85D-03
 Coeff-Com: -0.753D-02 0.188D-01 0.934D-01 0.292D+00 0.603D+00
 Coeff-En:   0.000D+00 0.000D+00 0.000D+00 0.343D-01 0.966D+00
 Coeff:     -0.750D-02 0.188D-01 0.931D-01 0.291D+00 0.605D+00
 Gap=     0.336 Goal=   None    Shift=    0.000
 RMSDP=4.93D-05 MaxDP=6.79D-04 DE=-7.80D-05 OVMax= 8.64D-04

 Cycle   6  Pass 0  IDiag  1:
 E= -599.361069445223     Delta-E=       -0.000009488298 Rises=F Damp=F
 DIIS: error= 4.30D-05 at cycle   6 NSaved=   6.
 NSaved= 6 IEnMin= 6 EnMin= -599.361069445223     IErMin= 6 ErrMin= 4.30D-05
 ErrMax= 4.30D-05  0.00D+00 EMaxC= 1.00D-01 BMatC= 1.18D-07 BMatP= 1.02D-05
 IDIUse=1 WtCom= 1.00D+00 WtEn= 0.00D+00
 Coeff-Com: -0.175D-02 0.360D-02 0.225D-01 0.854D-01 0.207D+00 0.684D+00
 Coeff:     -0.175D-02 0.360D-02 0.225D-01 0.854D-01 0.207D+00 0.684D+00
 Gap=     0.336 Goal=   None    Shift=    0.000
 RMSDP=6.73D-06 MaxDP=7.84D-05 DE=-9.49D-06 OVMax= 1.22D-04

 Initial convergence to 1.0D-05 achieved.  Increase integral accuracy.
 Cycle   7  Pass 1  IDiag  1:
 E= -599.361057145457     Delta-E=        0.000012299766 Rises=F Damp=F
 DIIS: error= 8.13D-06 at cycle   1 NSaved=   1.
 NSaved= 1 IEnMin= 1 EnMin= -599.361057145457     IErMin= 1 ErrMin= 8.13D-06
 ErrMax= 8.13D-06  0.00D+00 EMaxC= 1.00D-01 BMatC= 5.63D-09 BMatP= 5.63D-09
 IDIUse=1 WtCom= 1.00D+00 WtEn= 0.00D+00
 Coeff-Com:  0.100D+01
 Coeff:      0.100D+01
 Gap=     0.336 Goal=   None    Shift=    0.000
 RMSDP=6.73D-06 MaxDP=7.84D-05 DE= 1.23D-05 OVMax= 3.62D-05

 Cycle   8  Pass 1  IDiag  1:
 E= -599.361057146887     Delta-E=       -0.000000001430 Rises=F Damp=F
 DIIS: error= 1.00D-05 at cycle   2 NSaved=   2.
 NSaved= 2 IEnMin= 2 EnMin= -599.361057146887     IErMin= 1 ErrMin= 8.13D-06
 ErrMax= 1.00D-05  0.00D+00 EMaxC= 1.00D-01 BMatC= 5.29D-09 BMatP= 5.63D-09
 IDIUse=1 WtCom= 1.00D+00 WtEn= 0.00D+00
 Coeff-Com:  0.491D+00 0.509D+00
 Coeff:      0.491D+00 0.509D+00
 Gap=     0.336 Goal=   None    Shift=    0.000
 RMSDP=1.16D-06 MaxDP=1.79D-05 DE=-1.43D-09 OVMax= 2.29D-05

 Cycle   9  Pass 1  IDiag  1:
 E= -599.361057151845     Delta-E=       -0.000000004958 Rises=F Damp=F
 DIIS: error= 2.05D-06 at cycle   3 NSaved=   3.
 NSaved= 3 IEnMin= 3 EnMin= -599.361057151845     IErMin= 3 ErrMin= 2.05D-06
 ErrMax= 2.05D-06  0.00D+00 EMaxC= 1.00D-01 BMatC= 3.45D-10 BMatP= 5.29D-09
 IDIUse=1 WtCom= 1.00D+00 WtEn= 0.00D+00
 Coeff-Com:  0.108D+00 0.227D+00 0.665D+00
 Coeff:      0.108D+00 0.227D+00 0.665D+00
 Gap=     0.336 Goal=   None    Shift=    0.000
 RMSDP=2.86D-07 MaxDP=4.73D-06 DE=-4.96D-09 OVMax= 4.73D-06

 Cycle  10  Pass 1  IDiag  1:
 E= -599.361057152099     Delta-E=       -0.000000000254 Rises=F Damp=F
 DIIS: error= 5.38D-07 at cycle   4 NSaved=   4.
 NSaved= 4 IEnMin= 4 EnMin= -599.361057152099     IErMin= 4 ErrMin= 5.38D-07
 ErrMax= 5.38D-07  0.00D+00 EMaxC= 1.00D-01 BMatC= 3.88D-11 BMatP= 3.45D-10
 IDIUse=1 WtCom= 1.00D+00 WtEn= 0.00D+00
 Coeff-Com: -0.141D-01 0.468D-01 0.308D+00 0.659D+00
 Coeff:     -0.141D-01 0.468D-01 0.308D+00 0.659D+00
 Gap=     0.336 Goal=   None    Shift=    0.000
 RMSDP=9.64D-08 MaxDP=1.36D-06 DE=-2.54D-10 OVMax= 1.16D-06

 Cycle  11  Pass 1  IDiag  1:
 E= -599.361057152126     Delta-E=       -0.000000000027 Rises=F Damp=F
 DIIS: error= 1.07D-07 at cycle   5 NSaved=   5.
 NSaved= 5 IEnMin= 5 EnMin= -599.361057152126     IErMin= 5 ErrMin= 1.07D-07
 ErrMax= 1.07D-07  0.00D+00 EMaxC= 1.00D-01 BMatC= 1.57D-12 BMatP= 3.88D-11
 IDIUse=1 WtCom= 1.00D+00 WtEn= 0.00D+00
 Coeff-Com: -0.897D-02 0.191D-01 0.140D+00 0.336D+00 0.514D+00
 Coeff:     -0.897D-02 0.191D-01 0.140D+00 0.336D+00 0.514D+00
 Gap=     0.336 Goal=   None    Shift=    0.000
 RMSDP=2.10D-08 MaxDP=3.17D-07 DE=-2.68D-11 OVMax= 4.14D-07

 Cycle  12  Pass 1  IDiag  1:
 E= -599.361057152128     Delta-E=       -0.000000000002 Rises=F Damp=F
 DIIS: error= 1.72D-08 at cycle   6 NSaved=   6.
 NSaved= 6 IEnMin= 6 EnMin= -599.361057152128     IErMin= 6 ErrMin= 1.72D-08
 ErrMax= 1.72D-08  0.00D+00 EMaxC= 1.00D-01 BMatC= 4.73D-14 BMatP= 1.57D-12
 IDIUse=1 WtCom= 1.00D+00 WtEn= 0.00D+00
 Coeff-Com: -0.183D-02 0.207D-02 0.178D-01 0.537D-01 0.181D+00 0.748D+00
 Coeff:     -0.183D-02 0.207D-02 0.178D-01 0.537D-01 0.181D+00 0.748D+00
 Gap=     0.336 Goal=   None    Shift=    0.000
 RMSDP=4.61D-09 MaxDP=7.65D-08 DE=-1.82D-12 OVMax= 9.36D-08

 SCF Done:  E(RB3LYP) =  -599.361057152     A.U. after   12 cycles
            NFock= 12  Conv=0.46D-08     -V/T= 2.0026
 KE= 5.978128413713D+02 PE=-1.627363353099D+03 EE= 3.284509444571D+02
 Leave Link  502 at Sat Sep 12 17:34:29 2026, MaxMem=  1073741824 cpu:               1.3 elap:               1.4
 (Enter /app1/ia32-64/Gaussian/Rev-C.02/g16/l601.exe)
 Copying SCF densities to generalized density rwf, IOpCl= 0 IROHF=0.

 **********************************************************************

            Population analysis using the SCF Density.

 **********************************************************************

 Orbital symmetries:
       Occupied  (A') (A') (A') (A') (A') (A') (A") (A') (A') (A')
                 (A') (A") (A') (A") (A') (A') (A")
       Virtual   (A') (A') (A") (A') (A') (A") (A') (A') (A") (A')
                 (A') (A") (A') (A") (A') (A') (A") (A') (A') (A")
                 (A') (A') (A") (A') (A") (A") (A') (A') (A') (A")
                 (A') (A') (A") (A') (A") (A') (A') (A") (A')
 The electronic state is 1-A'.
 Alpha  occ. eigenvalues -- -101.54389 -24.70567 -10.32450  -9.46362  -7.22607
 Alpha  occ. eigenvalues --   -7.21652  -7.21590  -1.22657  -0.86822  -0.68528
 Alpha  occ. eigenvalues --   -0.52786  -0.52444  -0.48955  -0.38044  -0.37687
 Alpha  occ. eigenvalues --   -0.32446  -0.30757
 Alpha virt. eigenvalues --    0.02803   0.07710   0.10365   0.11164   0.39792
 Alpha virt. eigenvalues --    0.42907   0.46054   0.49510   0.55186   0.55954
 Alpha virt. eigenvalues --    0.56357   0.59197   0.68320   0.71330   0.71831
 Alpha virt. eigenvalues --    0.73816   0.77529   0.93257   1.05892   1.07623
 Alpha virt. eigenvalues --    1.15481   1.24444   1.27239   1.34515   1.55321
 Alpha virt. eigenvalues --    1.63427   1.63988   1.67219   1.80286   1.80932
 Alpha virt. eigenvalues --    2.00923   2.28172   2.37528   2.42637   3.57805
 Alpha virt. eigenvalues --    3.57921   3.77888   3.82122   4.01996
     Molecular Orbital Coefficients:
                           1         2         3         4         5
                           O         O         O         O         O
     Eigenvalues --  -101.54389 -24.70567 -10.32450  -9.46362  -7.22607
   1 1   C  1S         -0.00001  -0.00009   0.99645  -0.00013   0.00001
   2        2S         -0.00004  -0.00030   0.02888  -0.00131   0.00046
   3        3S          0.00017   0.00519  -0.01422   0.00778  -0.00091
   4        4PX         0.00000   0.00074   0.00046   0.00011  -0.00000
   5        4PY        -0.00000   0.00011   0.00047   0.00044   0.00017
   6        4PZ         0.00000   0.00000   0.00000   0.00000   0.00000
   7        5PX        -0.00003   0.00250   0.00182  -0.00117   0.00028
   8        5PY        -0.00012  -0.00063   0.00113  -0.00553   0.00074
   9        5PZ         0.00000   0.00000   0.00000   0.00000   0.00000
  10        6D 0       -0.00001  -0.00013   0.00071   0.00040   0.00040
  11        6D+1        0.00000   0.00000   0.00000   0.00000   0.00000
  12        6D-1        0.00000   0.00000   0.00000   0.00000   0.00000
  13        6D+2       -0.00001   0.00029   0.00058   0.00068   0.00040
  14        6D-2        0.00001  -0.00001  -0.00062  -0.00055  -0.00043
  15 2   F  1S          0.00000   0.99662   0.00004   0.00003  -0.00000
  16        2S          0.00001   0.02076   0.00054   0.00018  -0.00011
  17        3S         -0.00003  -0.01027  -0.00100  -0.00133   0.00020
  18        4PX        -0.00000  -0.00110   0.00003   0.00011   0.00005
  19        4PY        -0.00000   0.00006   0.00005   0.00002   0.00005
  20        4PZ         0.00000   0.00000   0.00000   0.00000   0.00000
  21        5PX         0.00001   0.00256   0.00183   0.00049  -0.00012
  22        5PY         0.00001  -0.00009  -0.00029   0.00039  -0.00022
  23        5PZ         0.00000   0.00000   0.00000   0.00000   0.00000
  24        6D 0       -0.00000   0.00008   0.00036  -0.00004  -0.00000
  25        6D+1        0.00000   0.00000   0.00000   0.00000   0.00000
  26        6D-1        0.00000   0.00000   0.00000   0.00000   0.00000
  27        6D+2       -0.00000  -0.00016  -0.00066  -0.00011  -0.00003
  28        6D-2       -0.00000   0.00002   0.00003  -0.00005  -0.00000
  29 3   Cl 1S          1.00138   0.00001  -0.00004  -0.27776   0.00174
  30        2S         -0.00493   0.00013  -0.00018   1.03654  -0.00666
  31        3S          0.00035   0.00032  -0.00069   0.05320  -0.00005
  32        4S         -0.00033  -0.00122   0.00344  -0.02602   0.00093
  33        5PX         0.00002   0.00002   0.00003   0.00211   0.37059
  34        5PY         0.00004   0.00003   0.00005   0.00558   0.92526
  35        5PZ         0.00000   0.00000   0.00000   0.00000   0.00000
  36        6PX        -0.00001  -0.00006   0.00000   0.00055   0.00377
  37        6PY        -0.00001  -0.00015   0.00008   0.00139   0.00937
  38        6PZ         0.00000   0.00000   0.00000   0.00000   0.00000
  39        7PX        -0.00004  -0.00073   0.00056  -0.00245  -0.00056
  40        7PY        -0.00010  -0.00040   0.00149  -0.00562  -0.00140
  41        7PZ         0.00000   0.00000   0.00000   0.00000   0.00000
  42        8D 0        0.00001   0.00006   0.00018   0.00017  -0.00038
  43        8D+1        0.00000   0.00000   0.00000   0.00000   0.00000
  44        8D-1        0.00000   0.00000   0.00000   0.00000   0.00000
  45        8D+2        0.00002  -0.00002   0.00023   0.00021  -0.00048
  46        8D-2       -0.00002  -0.00027  -0.00031  -0.00029   0.00046
  47 4   H  1S         -0.00001  -0.00049  -0.00148  -0.00093  -0.00008
  48        2S          0.00001  -0.00026   0.00268   0.00124   0.00017
  49        3PX         0.00000  -0.00033  -0.00069   0.00008  -0.00006
  50        3PY         0.00000   0.00010   0.00081   0.00025  -0.00005
  51        3PZ        -0.00001   0.00002   0.00133  -0.00013   0.00006
  52 5   H  1S         -0.00001  -0.00049  -0.00148  -0.00093  -0.00008
  53        2S          0.00001  -0.00026   0.00268   0.00124   0.00017
  54        3PX         0.00000  -0.00033  -0.00069   0.00008  -0.00006
  55        3PY         0.00000   0.00010   0.00081   0.00025  -0.00005
  56        3PZ         0.00001  -0.00002  -0.00133   0.00013  -0.00006
                           6         7         8         9        10
                           O         O         O         O         O
     Eigenvalues --    -7.21652  -7.21590  -1.22657  -0.86822  -0.68528
   1 1   C  1S         -0.00000   0.00000  -0.06290  -0.09020  -0.14884
   2        2S         -0.00001   0.00000   0.12483   0.19656   0.34440
   3        3S          0.00010   0.00000   0.03415   0.10098   0.19274
   4        4PX        -0.00002   0.00000   0.11248  -0.07137  -0.00488
   5        4PY        -0.00000   0.00000  -0.01295  -0.09922   0.10741
   6        4PZ         0.00000  -0.00002   0.00000   0.00000   0.00000
   7        5PX         0.00027   0.00000   0.02360  -0.02640  -0.03161
   8        5PY         0.00006   0.00000  -0.00222  -0.02460   0.03765
   9        5PZ         0.00000   0.00012   0.00000   0.00000   0.00000
  10        6D 0        0.00003   0.00000  -0.01867  -0.00941   0.00097
  11        6D+1        0.00000   0.00007   0.00000   0.00000   0.00000
  12        6D-1        0.00000   0.00009   0.00000   0.00000   0.00000
  13        6D+2        0.00010   0.00000   0.02507  -0.01532   0.00679
  14        6D-2        0.00008   0.00000  -0.00177   0.01158   0.00050
  15 2   F  1S          0.00000   0.00000  -0.21638   0.04199   0.05973
  16        2S         -0.00001   0.00000   0.46213  -0.09459  -0.13434
  17        3S         -0.00008   0.00000   0.48466  -0.11096  -0.18485
  18        4PX         0.00001   0.00000  -0.09842  -0.04881  -0.21548
  19        4PY         0.00004   0.00000   0.00440  -0.01791   0.05171
  20        4PZ         0.00000  -0.00000   0.00000   0.00000   0.00000
  21        5PX         0.00001   0.00000  -0.03385  -0.03185  -0.13028
  22        5PY        -0.00017   0.00000   0.00212  -0.00754   0.03072
  23        5PZ         0.00000  -0.00002   0.00000   0.00000   0.00000
  24        6D 0       -0.00000   0.00000  -0.00494  -0.00147  -0.00423
  25        6D+1        0.00000   0.00001   0.00000   0.00000   0.00000
  26        6D-1        0.00000  -0.00001   0.00000   0.00000   0.00000
  27        6D+2       -0.00001   0.00000   0.00814   0.00246   0.00769
  28        6D-2        0.00002   0.00000  -0.00059   0.00147  -0.00337
  29 3   Cl 1S         -0.00004   0.00000   0.00343   0.07284  -0.04121
  30        2S          0.00012   0.00000  -0.01410  -0.25703   0.14409
  31        3S         -0.00003   0.00000   0.01655   0.43424  -0.25339
  32        4S          0.00012   0.00000   0.02588   0.41332  -0.27675
  33        5PX         0.92563   0.00000  -0.00497  -0.01684  -0.01167
  34        5PY        -0.37074   0.00000  -0.00631  -0.04557  -0.04160
  35        5PZ         0.00000   0.99713   0.00000   0.00000   0.00000
  36        6PX         0.00820   0.00000   0.01053   0.03806   0.02642
  37        6PY        -0.00327   0.00000   0.01375   0.10187   0.09268
  38        6PZ         0.00000   0.00876   0.00000   0.00000   0.00000
  39        7PX        -0.00151   0.00000   0.00487   0.00869   0.01580
  40        7PY         0.00066   0.00000   0.00890   0.02847   0.04765
  41        7PZ         0.00000  -0.00160   0.00000   0.00000   0.00000
  42        8D 0       -0.00000   0.00000  -0.00436  -0.01574  -0.00809
  43        8D+1        0.00000   0.00012   0.00000   0.00000   0.00000
  44        8D-1        0.00000   0.00031   0.00000   0.00000   0.00000
  45        8D+2        0.00020   0.00000  -0.00255  -0.02045  -0.01409
  46        8D-2        0.00025   0.00000   0.00694   0.01810   0.00928
  47 4   H  1S          0.00002  -0.00005   0.02693   0.06749   0.19363
  48        2S         -0.00008   0.00016   0.00401   0.00129   0.01716
  49        3PX        -0.00001  -0.00004   0.00426   0.00197   0.00726
  50        3PY         0.00005  -0.00008  -0.00373  -0.00661  -0.00764
  51        3PZ        -0.00001  -0.00000  -0.00552  -0.00794  -0.01841
  52 5   H  1S          0.00002   0.00005   0.02693   0.06749   0.19363
  53        2S         -0.00008  -0.00016   0.00401   0.00129   0.01716
  54        3PX        -0.00001   0.00004   0.00426   0.00197   0.00726
  55        3PY         0.00005   0.00008  -0.00373  -0.00661  -0.00764
  56        3PZ         0.00001  -0.00000   0.00552   0.00794   0.01841
                          11        12        13        14        15
                           O         O         O         O         O
     Eigenvalues --    -0.52786  -0.52444  -0.48955  -0.38044  -0.37687
   1 1   C  1S         -0.01081   0.00000   0.01881   0.00000   0.00798
   2        2S          0.00323   0.00000  -0.04429   0.00000  -0.00782
   3        3S          0.04442   0.00000  -0.08348   0.00000   0.00365
   4        4PX        -0.33395   0.00000   0.15434   0.00000   0.00387
   5        4PY         0.17015   0.00000   0.27598   0.00000  -0.23868
   6        4PZ         0.00000   0.39592   0.00000  -0.21490   0.00000
   7        5PX        -0.05945   0.00000   0.04972   0.00000   0.01579
   8        5PY         0.05989   0.00000   0.13228   0.00000  -0.02334
   9        5PZ         0.00000   0.16049   0.00000  -0.01788   0.00000
  10        6D 0        0.02099   0.00000   0.00288   0.00000  -0.01509
  11        6D+1        0.00000   0.01147   0.00000   0.04152   0.00000
  12        6D-1        0.00000   0.00053   0.00000   0.00321   0.00000
  13        6D+2       -0.01848   0.00000   0.02221   0.00000  -0.00410
  14        6D-2        0.01568   0.00000   0.01353   0.00000   0.04122
  15 2   F  1S         -0.04269   0.00000   0.01135   0.00000  -0.00001
  16        2S          0.08571   0.00000  -0.02197   0.00000   0.00368
  17        3S          0.16913   0.00000  -0.04777   0.00000  -0.00895
  18        4PX         0.47155   0.00000  -0.16008   0.00000  -0.00016
  19        4PY         0.13376   0.00000   0.39214   0.00000   0.50593
  20        4PZ         0.00000   0.35549   0.00000   0.55447   0.00000
  21        5PX         0.28200   0.00000  -0.09793   0.00000   0.00662
  22        5PY         0.08485   0.00000   0.24744   0.00000   0.35131
  23        5PZ         0.00000   0.22240   0.00000   0.38246   0.00000
  24        6D 0        0.00655   0.00000  -0.00215   0.00000  -0.00051
  25        6D+1        0.00000  -0.01306   0.00000  -0.00701   0.00000
  26        6D-1        0.00000   0.00095   0.00000   0.00025   0.00000
  27        6D+2       -0.01140   0.00000   0.00261   0.00000  -0.00059
  28        6D-2       -0.00428   0.00000  -0.01205   0.00000  -0.00620
  29 3   Cl 1S         -0.00069   0.00000   0.02234   0.00000  -0.00387
  30        2S          0.00098   0.00000  -0.08644   0.00000   0.02104
  31        3S         -0.00686   0.00000   0.12837   0.00000  -0.01319
  32        4S          0.00173   0.00000   0.25257   0.00000  -0.05955
  33        5PX         0.04048   0.00000   0.06860   0.00000  -0.03835
  34        5PY        -0.01667   0.00000   0.13161   0.00000  -0.15578
  35        5PZ         0.00000  -0.05164   0.00000   0.10193   0.00000
  36        6PX        -0.09532   0.00000  -0.15896   0.00000   0.09565
  37        6PY         0.03678   0.00000  -0.30782   0.00000   0.37432
  38        6PZ         0.00000   0.11976   0.00000  -0.24225   0.00000
  39        7PX        -0.05528   0.00000  -0.08714   0.00000   0.03595
  40        7PY         0.02758   0.00000  -0.14213   0.00000   0.24457
  41        7PZ         0.00000   0.06448   0.00000  -0.17357   0.00000
  42        8D 0        0.00186   0.00000   0.01902   0.00000  -0.01126
  43        8D+1        0.00000   0.01001   0.00000  -0.00407   0.00000
  44        8D-1        0.00000   0.02489   0.00000  -0.02403   0.00000
  45        8D+2       -0.01700   0.00000   0.01818   0.00000  -0.02094
  46        8D-2       -0.01817   0.00000  -0.02264   0.00000   0.01572
  47 4   H  1S          0.14124   0.21863   0.03049  -0.18387  -0.13268
  48        2S          0.05065   0.05192   0.01558  -0.10287  -0.07882
  49        3PX        -0.00648   0.00564   0.00447  -0.00286  -0.00257
  50        3PY        -0.00125  -0.00959   0.00417   0.00706  -0.00491
  51        3PZ        -0.01212  -0.00656  -0.00354   0.00254   0.00886
  52 5   H  1S          0.14124  -0.21863   0.03049   0.18387  -0.13268
  53        2S          0.05065  -0.05192   0.01558   0.10287  -0.07882
  54        3PX        -0.00648  -0.00564   0.00447   0.00286  -0.00257
  55        3PY        -0.00125   0.00959   0.00417  -0.00706  -0.00491
  56        3PZ         0.01212  -0.00656   0.00354   0.00254  -0.00886
                          16        17        18        19        20
                           O         O         V         V         V
     Eigenvalues --    -0.32446  -0.30757   0.02803   0.07710   0.10365
   1 1   C  1S         -0.00959   0.00000  -0.11743   0.03501   0.00000
   2        2S          0.02221   0.00000   0.23625  -0.01479   0.00000
   3        3S          0.02695   0.00000   1.47347  -0.98628   0.00000
   4        4PX        -0.01407   0.00000  -0.22266   0.07986   0.00000
   5        4PY         0.02118   0.00000  -0.31405  -0.44882   0.00000
   6        4PZ         0.00000  -0.18635   0.00000   0.00000  -0.43457
   7        5PX         0.04910   0.00000  -0.43180   0.27783   0.00000
   8        5PY         0.02617   0.00000  -0.35922  -0.96250   0.00000
   9        5PZ         0.00000  -0.02636   0.00000   0.00000  -1.19323
  10        6D 0        0.00658   0.00000   0.00664   0.01619   0.00000
  11        6D+1        0.00000   0.00577   0.00000   0.00000  -0.00155
  12        6D-1        0.00000  -0.03163   0.00000   0.00000   0.02202
  13        6D+2       -0.02815   0.00000   0.01072   0.00049   0.00000
  14        6D-2       -0.00984   0.00000  -0.00149  -0.00687   0.00000
  15 2   F  1S          0.00881   0.00000  -0.00436   0.01633   0.00000
  16        2S         -0.01996   0.00000   0.01068  -0.03181   0.00000
  17        3S         -0.04973   0.00000   0.02855  -0.13432   0.00000
  18        4PX         0.12595   0.00000   0.04675   0.03236   0.00000
  19        4PY         0.11906   0.00000   0.10014   0.10598   0.00000
  20        4PZ         0.00000   0.14366   0.00000   0.00000   0.08074
  21        5PX         0.08805   0.00000   0.05604   0.03770   0.00000
  22        5PY         0.08131   0.00000   0.10927   0.15194   0.00000
  23        5PZ         0.00000   0.10187   0.00000   0.00000   0.14107
  24        6D 0        0.00049   0.00000  -0.00080   0.00334   0.00000
  25        6D+1        0.00000   0.00023   0.00000   0.00000   0.00711
  26        6D-1        0.00000  -0.00116   0.00000   0.00000   0.00256
  27        6D+2       -0.00276   0.00000   0.00361   0.00005   0.00000
  28        6D-2       -0.00191   0.00000   0.00415   0.00678   0.00000
  29 3   Cl 1S          0.00059   0.00000  -0.01797  -0.01910   0.00000
  30        2S         -0.00122   0.00000   0.09689   0.07380   0.00000
  31        3S          0.00516   0.00000  -0.07091  -0.12003   0.00000
  32        4S          0.01100   0.00000  -0.61987  -0.48411   0.00000
  33        5PX        -0.24932   0.00000   0.04579   0.03205   0.00000
  34        5PY         0.09300   0.00000   0.13402   0.06793   0.00000
  35        5PZ         0.00000  -0.24851   0.00000   0.00000  -0.00562
  36        6PX         0.59980   0.00000  -0.10924  -0.06823   0.00000
  37        6PY        -0.22288   0.00000  -0.32536  -0.16463   0.00000
  38        6PZ         0.00000   0.59837   0.00000   0.00000   0.00226
  39        7PX         0.43825   0.00000  -0.26227  -0.28917   0.00000
  40        7PY        -0.15944   0.00000  -0.70761  -0.42263   0.00000
  41        7PZ         0.00000   0.45483   0.00000   0.00000   0.14951
  42        8D 0        0.00164   0.00000  -0.06006  -0.00971   0.00000
  43        8D+1        0.00000   0.00284   0.00000   0.00000  -0.04573
  44        8D-1        0.00000   0.00146   0.00000   0.00000  -0.04224
  45        8D+2        0.00866   0.00000  -0.08184  -0.01515   0.00000
  46        8D-2        0.01464   0.00000   0.06177   0.05362   0.00000
  47 4   H  1S          0.03822  -0.17902  -0.05191   0.05842   0.09173
  48        2S          0.01959  -0.11405  -0.62471   1.13092   1.63270
  49        3PX        -0.00057  -0.00292  -0.00609   0.00064  -0.00073
  50        3PY         0.00008   0.00355  -0.01371  -0.01250   0.00453
  51        3PZ        -0.00094   0.00099   0.00398   0.00848   0.00119
  52 5   H  1S          0.03822   0.17902  -0.05191   0.05842  -0.09173
  53        2S          0.01959   0.11405  -0.62471   1.13092  -1.63270
  54        3PX        -0.00057   0.00292  -0.00609   0.00064   0.00073
  55        3PY         0.00008  -0.00355  -0.01371  -0.01250  -0.00453
  56        3PZ         0.00094   0.00099  -0.00398  -0.00848   0.00119
                          21        22        23        24        25
                           V         V         V         V         V
     Eigenvalues --     0.11164   0.39792   0.42907   0.46054   0.49510
   1 1   C  1S         -0.08317   0.00527   0.00000   0.02448   0.01735
   2        2S          0.20509   0.18295   0.00000  -0.33898   0.12505
   3        3S          0.76212  -0.35359   0.00000   0.08414  -0.81290
   4        4PX         0.39455  -0.23055   0.00000  -0.89979   0.02942
   5        4PY        -0.01128  -0.62862   0.00000   0.14517  -0.25855
   6        4PZ         0.00000   0.00000  -0.15426   0.00000   0.00000
   7        5PX         0.94076   0.29190   0.00000   1.34946   0.06761
   8        5PY         0.07414   1.68167   0.00000  -0.31154   0.60768
   9        5PZ         0.00000   0.00000   0.92390   0.00000   0.00000
  10        6D 0        0.02642  -0.08113   0.00000  -0.04813   0.15812
  11        6D+1        0.00000   0.00000   0.04781   0.00000   0.00000
  12        6D-1        0.00000   0.00000  -0.21038   0.00000   0.00000
  13        6D+2       -0.04672  -0.02450   0.00000   0.15027   0.04634
  14        6D-2        0.00026   0.00270   0.00000   0.01578  -0.12756
  15 2   F  1S          0.07877  -0.00053   0.00000   0.01184  -0.00810
  16        2S         -0.13376   0.00570   0.00000   0.07854   0.00387
  17        3S         -0.73514  -0.02462   0.00000  -0.64690   0.15477
  18        4PX         0.34650  -0.04300   0.00000  -0.33489   0.02359
  19        4PY        -0.03970  -0.10591   0.00000   0.02702   0.06969
  20        4PZ         0.00000   0.00000  -0.16013   0.00000   0.00000
  21        5PX         0.43615  -0.03069   0.00000   0.08938  -0.07814
  22        5PY        -0.04308  -0.21211   0.00000   0.02177  -0.00383
  23        5PZ         0.00000   0.00000  -0.14011   0.00000   0.00000
  24        6D 0       -0.00085  -0.00141   0.00000   0.02281  -0.00270
  25        6D+1        0.00000   0.00000  -0.00550   0.00000   0.00000
  26        6D-1        0.00000   0.00000  -0.00352   0.00000   0.00000
  27        6D+2        0.00210  -0.00602   0.00000  -0.03777   0.00481
  28        6D-2       -0.00092   0.00303   0.00000   0.00326   0.00921
  29 3   Cl 1S          0.00036   0.01768   0.00000  -0.00517   0.03183
  30        2S         -0.00153  -0.02513   0.00000  -0.01298  -0.02950
  31        3S          0.00261   0.18586   0.00000  -0.08261   0.35221
  32        4S          0.09347   0.69730   0.00000   0.15828   0.29373
  33        5PX         0.05699   0.02416   0.00000   0.05983   0.08597
  34        5PY        -0.01679   0.02168   0.00000  -0.00321   0.22186
  35        5PZ         0.00000   0.00000   0.08159   0.00000   0.00000
  36        6PX        -0.14315  -0.07224   0.00000  -0.21708  -0.33580
  37        6PY         0.04948  -0.01795   0.00000   0.00895  -0.88176
  38        6PZ         0.00000   0.00000  -0.26296   0.00000   0.00000
  39        7PX        -0.22680   0.31938   0.00000  -0.01833   0.54424
  40        7PY         0.10303   0.41080   0.00000   0.14126   1.39737
  41        7PZ         0.00000   0.00000  -0.10714   0.00000   0.00000
  42        8D 0       -0.00241  -0.18538   0.00000   0.02225   0.03533
  43        8D+1        0.00000   0.00000   0.15384   0.00000   0.00000
  44        8D-1        0.00000   0.00000   0.30187   0.00000   0.00000
  45        8D+2        0.05152  -0.20677   0.00000   0.02694   0.07869
  46        8D-2        0.09133   0.16008   0.00000   0.02459   0.00965
  47 4   H  1S          0.02248  -0.27277  -0.62496   0.10495   0.29669
  48        2S         -0.21436  -0.09396   0.24308   0.16847  -0.30849
  49        3PX         0.02569  -0.01666   0.02029  -0.01349  -0.02747
  50        3PY         0.00001   0.01761  -0.05139  -0.02995  -0.02387
  51        3PZ         0.00939  -0.00935  -0.01434  -0.02818   0.06963
  52 5   H  1S          0.02248  -0.27277   0.62496   0.10495   0.29669
  53        2S         -0.21436  -0.09396  -0.24308   0.16847  -0.30849
  54        3PX         0.02569  -0.01666  -0.02029  -0.01349  -0.02747
  55        3PY         0.00001   0.01761   0.05139  -0.02995  -0.02387
  56        3PZ        -0.00939   0.00935  -0.01434   0.02818  -0.06963
                          26        27        28        29        30
                           V         V         V         V         V
     Eigenvalues --     0.55186   0.55954   0.56357   0.59197   0.68320
   1 1   C  1S          0.00000  -0.00779   0.07316   0.00000  -0.01031
   2        2S          0.00000   0.00639  -0.40821   0.00000  -0.02698
   3        3S          0.00000   0.05497   0.67768   0.00000  -0.01066
   4        4PX         0.00000   0.18431   0.01287   0.00000  -0.02004
   5        4PY         0.00000  -0.02219  -0.25038   0.00000  -0.06791
   6        4PZ         0.38692   0.00000   0.00000  -0.79050   0.00000
   7        5PX         0.00000  -0.41179  -0.24147   0.00000  -0.32640
   8        5PY         0.00000   0.07377   0.05097   0.00000   0.39826
   9        5PZ        -0.99934   0.00000   0.00000   1.80601   0.00000
  10        6D 0        0.00000   0.04034   0.10589   0.00000  -0.10745
  11        6D+1        0.09963   0.00000   0.00000  -0.13517   0.00000
  12        6D-1       -0.00213   0.00000   0.00000   0.22872   0.00000
  13        6D+2        0.00000   0.07272  -0.13053   0.00000  -0.12591
  14        6D-2        0.00000   0.07920  -0.04710   0.00000  -0.25686
  15 2   F  1S          0.00000   0.00690  -0.03188   0.00000  -0.00838
  16        2S          0.00000  -0.05801   0.12523   0.00000  -0.01979
  17        3S          0.00000   0.12093   0.15169   0.00000   0.20961
  18        4PX         0.00000   0.06060  -0.08582   0.00000   0.06268
  19        4PY         0.00000   0.06341   0.04031   0.00000   0.19791
  20        4PZ        -0.00562   0.00000   0.00000  -0.01803   0.00000
  21        5PX         0.00000   0.04264  -0.15644   0.00000  -0.12606
  22        5PY         0.00000  -0.01805   0.00574   0.00000  -0.10026
  23        5PZ         0.07829   0.00000   0.00000  -0.10908   0.00000
  24        6D 0        0.00000  -0.00423   0.00046   0.00000  -0.00741
  25        6D+1       -0.00594   0.00000   0.00000   0.01062   0.00000
  26        6D-1       -0.00150   0.00000   0.00000  -0.00288   0.00000
  27        6D+2        0.00000   0.00203   0.00244   0.00000  -0.00207
  28        6D-2        0.00000   0.00194   0.00342   0.00000   0.01188
  29 3   Cl 1S          0.00000  -0.00518   0.02952   0.00000  -0.03511
  30        2S          0.00000  -0.00756   0.06250   0.00000  -0.08640
  31        3S          0.00000  -0.07553   0.45728   0.00000  -0.56251
  32        4S          0.00000   0.03074  -0.53993   0.00000   0.75201
  33        5PX         0.00000   0.25850  -0.00839   0.00000   0.08484
  34        5PY         0.00000  -0.08711  -0.14549   0.00000  -0.01404
  35        5PZ         0.25617   0.00000   0.00000   0.12608   0.00000
  36        6PX         0.00000  -1.03811   0.04590   0.00000  -0.33269
  37        6PY         0.00000   0.34688   0.57246   0.00000   0.05030
  38        6PZ        -1.02493   0.00000   0.00000  -0.50417   0.00000
  39        7PX         0.00000   1.15790  -0.11130   0.00000   0.42552
  40        7PY         0.00000  -0.42054  -0.64978   0.00000   0.06193
  41        7PZ         1.20966   0.00000   0.00000   0.34491   0.00000
  42        8D 0        0.00000   0.02502  -0.05826   0.00000  -0.24435
  43        8D+1       -0.13238   0.00000   0.00000   0.09893   0.00000
  44        8D-1       -0.23625   0.00000   0.00000  -0.07763   0.00000
  45        8D+2        0.00000  -0.19580   0.03877   0.00000   0.66621
  46        8D-2        0.00000  -0.24413   0.21421   0.00000   0.22165
  47 4   H  1S         -0.06982  -0.03103   0.65307   0.25660  -0.12943
  48        2S          0.54523  -0.01518  -0.57898  -1.60288  -0.12141
  49        3PX         0.01271   0.01759  -0.02277  -0.07506  -0.07091
  50        3PY        -0.07380   0.00780   0.07256   0.08187   0.06103
  51        3PZ        -0.04124   0.00908   0.13916   0.13103  -0.06615
  52 5   H  1S          0.06982  -0.03103   0.65307  -0.25660  -0.12943
  53        2S         -0.54523  -0.01518  -0.57898   1.60288  -0.12141
  54        3PX        -0.01271   0.01759  -0.02277   0.07506  -0.07091
  55        3PY         0.07380   0.00780   0.07256  -0.08187   0.06103
  56        3PZ        -0.04124  -0.00908  -0.13916   0.13103   0.06615
                          31        32        33        34        35
                           V         V         V         V         V
     Eigenvalues --     0.71330   0.71831   0.73816   0.77529   0.93257
   1 1   C  1S          0.00000  -0.01313  -0.01020   0.00000  -0.04609
   2        2S          0.00000  -0.62099  -0.20984   0.00000  -1.52390
   3        3S          0.00000   1.55128   0.55318   0.00000   3.67206
   4        4PX         0.00000   0.06167  -0.00846   0.00000   0.37631
   5        4PY         0.00000  -0.39805  -0.27194   0.00000   0.26714
   6        4PZ        -0.02104   0.00000   0.00000  -0.16744   0.00000
   7        5PX         0.00000   0.18273  -0.12196   0.00000  -0.35814
   8        5PY         0.00000   1.05801   0.87591   0.00000  -0.13156
   9        5PZ        -0.21088   0.00000   0.00000   1.10290   0.00000
  10        6D 0        0.00000   0.10510   0.08127   0.00000  -0.11457
  11        6D+1       -0.23975   0.00000   0.00000   0.20126   0.00000
  12        6D-1       -0.05453   0.00000   0.00000   0.18536   0.00000
  13        6D+2        0.00000   0.14560  -0.02941   0.00000   0.09415
  14        6D-2        0.00000  -0.03541  -0.11087   0.00000  -0.08872
  15 2   F  1S          0.00000   0.01938  -0.00415   0.00000   0.04624
  16        2S          0.00000  -0.04972   0.01280   0.00000  -0.20687
  17        3S          0.00000  -0.26683   0.04143   0.00000  -0.40823
  18        4PX         0.00000  -0.04565  -0.00852   0.00000  -0.16388
  19        4PY         0.00000  -0.06373  -0.02600   0.00000   0.10775
  20        4PZ         0.17456   0.00000   0.00000  -0.28214   0.00000
  21        5PX         0.00000   0.18899  -0.02443   0.00000   0.54575
  22        5PY         0.00000  -0.06458  -0.03069   0.00000  -0.07645
  23        5PZ        -0.01668   0.00000   0.00000   0.01840   0.00000
  24        6D 0        0.00000   0.00556  -0.00277   0.00000   0.00879
  25        6D+1        0.01181   0.00000   0.00000  -0.01505   0.00000
  26        6D-1       -0.00288   0.00000   0.00000   0.00438   0.00000
  27        6D+2        0.00000  -0.01007  -0.00120   0.00000  -0.01837
  28        6D-2        0.00000   0.00546   0.00693   0.00000   0.00062
  29 3   Cl 1S          0.00000  -0.05986  -0.04892   0.00000   0.01070
  30        2S          0.00000  -0.16288  -0.13841   0.00000   0.07630
  31        3S          0.00000  -0.98249  -0.81044   0.00000   0.23919
  32        4S          0.00000   1.46253   1.25547   0.00000  -0.94308
  33        5PX         0.00000  -0.05857   0.00820   0.00000   0.01303
  34        5PY         0.00000   0.01546  -0.00234   0.00000   0.05753
  35        5PZ         0.04190   0.00000   0.00000  -0.04857   0.00000
  36        6PX         0.00000   0.23386  -0.03228   0.00000  -0.07190
  37        6PY         0.00000  -0.06817   0.00803   0.00000  -0.28703
  38        6PZ        -0.16744   0.00000   0.00000   0.20201   0.00000
  39        7PX         0.00000  -0.12578   0.18976   0.00000  -0.11257
  40        7PY         0.00000   0.34458   0.24419   0.00000  -0.15900
  41        7PZ         0.20899   0.00000   0.00000  -0.37479   0.00000
  42        8D 0        0.00000  -0.21550   0.82733   0.00000  -0.12573
  43        8D+1       -0.61264   0.00000   0.00000  -0.72810   0.00000
  44        8D-1        0.64276   0.00000   0.00000  -0.29302   0.00000
  45        8D+2        0.00000   0.08941  -0.04687   0.00000  -0.27791
  46        8D-2        0.00000  -0.57655   0.23282   0.00000   0.27575
  47 4   H  1S          0.13956   0.08260  -0.06054  -0.27266  -0.27027
  48        2S         -0.10626  -0.84664  -0.48699  -0.45673  -0.78703
  49        3PX        -0.09092  -0.00437  -0.04412   0.12171  -0.11178
  50        3PY        -0.03193   0.00831   0.02853   0.02521   0.07306
  51        3PZ         0.00080   0.10449   0.01085   0.05721   0.02916
  52 5   H  1S         -0.13956   0.08260  -0.06054   0.27266  -0.27027
  53        2S          0.10626  -0.84664  -0.48699   0.45673  -0.78703
  54        3PX         0.09092  -0.00437  -0.04412  -0.12171  -0.11178
  55        3PY         0.03193   0.00831   0.02853  -0.02521   0.07306
  56        3PZ         0.00080  -0.10449  -0.01085   0.05721  -0.02916
                          36        37        38        39        40
                           V         V         V         V         V
     Eigenvalues --     1.05892   1.07623   1.15481   1.24444   1.27239
   1 1   C  1S          0.01682   0.00000  -0.05633  -0.09524   0.00000
   2        2S         -0.52445   0.00000  -0.51061  -0.87566   0.00000
   3        3S         -0.38247   0.00000   1.91199   2.56505   0.00000
   4        4PX        -0.29658   0.00000   0.08078  -0.31519   0.00000
   5        4PY         0.22036   0.00000  -0.05848  -0.13390   0.00000
   6        4PZ         0.00000  -0.06906   0.00000   0.00000   0.08376
   7        5PX        -0.39663   0.00000  -0.63899  -0.31993   0.00000
   8        5PY         0.45739   0.00000   0.02789  -0.69823   0.00000
   9        5PZ         0.00000   0.63399   0.00000   0.00000  -0.54236
  10        6D 0        0.29266   0.00000   0.18549   0.13407   0.00000
  11        6D+1        0.00000  -0.34936   0.00000   0.00000  -0.38139
  12        6D-1        0.00000  -0.28875   0.00000   0.00000   0.07516
  13        6D+2       -0.35406   0.00000   0.22083  -0.22817   0.00000
  14        6D-2        0.20961   0.00000   0.17154  -0.25582   0.00000
  15 2   F  1S         -0.05873   0.00000   0.00790  -0.00343   0.00000
  16        2S          0.23689   0.00000  -0.04347  -0.00465   0.00000
  17        3S          0.42912   0.00000  -0.04812  -0.09988   0.00000
  18        4PX         0.44521   0.00000  -0.01346   0.40841   0.00000
  19        4PY        -0.08177   0.00000  -0.55840   0.17224   0.00000
  20        4PZ         0.00000   0.11034   0.00000   0.00000  -0.77954
  21        5PX        -1.09489   0.00000   0.14970  -0.62770   0.00000
  22        5PY         0.01754   0.00000   0.56483  -0.05173   0.00000
  23        5PZ         0.00000  -0.11316   0.00000   0.00000   1.14770
  24        6D 0        0.00991   0.00000   0.00861   0.03271   0.00000
  25        6D+1        0.00000   0.01586   0.00000   0.00000   0.04655
  26        6D-1        0.00000  -0.01081   0.00000   0.00000  -0.00066
  27        6D+2       -0.02768   0.00000   0.00052  -0.02814   0.00000
  28        6D-2       -0.01314   0.00000  -0.01174   0.02490   0.00000
  29 3   Cl 1S         -0.04405   0.00000   0.03161   0.07048   0.00000
  30        2S         -0.14135   0.00000   0.12591   0.30036   0.00000
  31        3S         -0.76035   0.00000   0.57880   1.32162   0.00000
  32        4S          1.11147   0.00000  -1.10401  -2.48918   0.00000
  33        5PX         0.02978   0.00000   0.01889  -0.01821   0.00000
  34        5PY         0.05690   0.00000  -0.03616  -0.03232   0.00000
  35        5PZ         0.00000  -0.03581   0.00000   0.00000   0.00203
  36        6PX        -0.14486   0.00000  -0.10895   0.12343   0.00000
  37        6PY        -0.27876   0.00000   0.18084   0.18944   0.00000
  38        6PZ         0.00000   0.18861   0.00000   0.00000  -0.01162
  39        7PX         0.37076   0.00000   0.16139  -0.63417   0.00000
  40        7PY         0.57743   0.00000  -0.71964  -1.15752   0.00000
  41        7PZ         0.00000  -0.45727   0.00000   0.00000   0.09337
  42        8D 0       -0.22012   0.00000   0.05251   0.28110   0.00000
  43        8D+1        0.00000  -0.17758   0.00000   0.00000   0.05249
  44        8D-1        0.00000  -0.58069   0.00000   0.00000   0.04277
  45        8D+2       -0.15996   0.00000   0.49324   0.14475   0.00000
  46        8D-2        0.28614   0.00000   0.18872  -0.48634   0.00000
  47 4   H  1S         -0.10626  -0.14901  -0.38182  -0.44304  -0.05330
  48        2S         -0.18068  -0.18161  -0.27438  -0.11658   0.24948
  49        3PX         0.11747  -0.26152  -0.02049  -0.01911  -0.15102
  50        3PY        -0.02113  -0.27502  -0.20491   0.05433   0.09891
  51        3PZ         0.08078   0.07096   0.10033  -0.05376  -0.16642
  52 5   H  1S         -0.10626   0.14901  -0.38182  -0.44304   0.05330
  53        2S         -0.18068   0.18161  -0.27438  -0.11658  -0.24948
  54        3PX         0.11747   0.26152  -0.02049  -0.01911   0.15102
  55        3PY        -0.02113   0.27502  -0.20491   0.05433  -0.09891
  56        3PZ        -0.08078   0.07096  -0.10033   0.05376  -0.16642
                          41        42        43        44        45
                           V         V         V         V         V
     Eigenvalues --     1.34515   1.55321   1.63427   1.63988   1.67219
   1 1   C  1S          0.02574   0.00000   0.00000  -0.01270   0.05964
   2        2S          0.12725   0.00000   0.00000   0.11606   0.38431
   3        3S         -0.87614   0.00000   0.00000  -0.06618  -1.86663
   4        4PX        -0.03552   0.00000   0.00000  -0.07257   0.12152
   5        4PY         0.13140   0.00000   0.00000   0.02663   0.11853
   6        4PZ         0.00000  -0.04783  -0.19931   0.00000   0.00000
   7        5PX         0.29233   0.00000   0.00000   0.65417   0.96865
   8        5PY        -0.77569   0.00000   0.00000  -0.54461   1.56199
   9        5PZ         0.00000   1.18711   1.14879   0.00000   0.00000
  10        6D 0       -0.12024   0.00000   0.00000  -0.65405   0.38892
  11        6D+1        0.00000   0.34291  -0.50504   0.00000   0.00000
  12        6D-1        0.00000  -0.25049   0.71505   0.00000   0.00000
  13        6D+2       -0.24208   0.00000   0.00000   0.19161   0.56806
  14        6D-2       -0.60628   0.00000   0.00000   0.52783  -0.45574
  15 2   F  1S         -0.00252   0.00000   0.00000   0.02547   0.00933
  16        2S         -0.00589   0.00000   0.00000  -0.09029   0.05887
  17        3S          0.04283   0.00000   0.00000  -0.38836  -0.30510
  18        4PX         0.04261   0.00000   0.00000   0.46397   0.28821
  19        4PY        -0.63770   0.00000   0.00000  -0.09890   0.19018
  20        4PZ         0.00000   0.22599   0.29226   0.00000   0.00000
  21        5PX        -0.14009   0.00000   0.00000  -0.32542  -0.22298
  22        5PY         1.13417   0.00000   0.00000   0.02829  -0.40097
  23        5PZ         0.00000  -0.59745  -0.42783   0.00000   0.00000
  24        6D 0       -0.00153   0.00000   0.00000  -0.00995   0.00908
  25        6D+1        0.00000  -0.06661   0.03474   0.00000   0.00000
  26        6D-1        0.00000  -0.01293   0.02953   0.00000   0.00000
  27        6D+2       -0.00201   0.00000   0.00000  -0.02571   0.01000
  28        6D-2        0.07668   0.00000   0.00000  -0.04946   0.00611
  29 3   Cl 1S         -0.00873   0.00000   0.00000   0.00042  -0.02371
  30        2S         -0.03761   0.00000   0.00000   0.05247  -0.26056
  31        3S         -0.16489   0.00000   0.00000   0.07708  -0.66524
  32        4S          0.09220   0.00000   0.00000  -0.37331   2.38239
  33        5PX         0.02838   0.00000   0.00000   0.00398  -0.04952
  34        5PY        -0.00355   0.00000   0.00000   0.04401  -0.10684
  35        5PZ         0.00000   0.00495  -0.01626   0.00000   0.00000
  36        6PX        -0.11059   0.00000   0.00000  -0.00994   0.20875
  37        6PY        -0.02526   0.00000   0.00000  -0.17207   0.42471
  38        6PZ         0.00000   0.00184   0.07433   0.00000   0.00000
  39        7PX        -0.02175   0.00000   0.00000  -0.23129   0.29385
  40        7PY         0.18215   0.00000   0.00000  -0.09327   0.99251
  41        7PZ         0.00000  -0.25002  -0.26681   0.00000   0.00000
  42        8D 0       -0.11919   0.00000   0.00000   0.15960  -0.31336
  43        8D+1        0.00000  -0.15190   0.04163   0.00000   0.00000
  44        8D-1        0.00000  -0.20696  -0.07142   0.00000   0.00000
  45        8D+2       -0.33548   0.00000   0.00000   0.13802  -0.44393
  46        8D-2       -0.12228   0.00000   0.00000  -0.13741   0.35287
  47 4   H  1S          0.18280  -0.09121  -0.74278   0.44440   0.00640
  48        2S          0.27788  -0.50319  -0.07794   0.04226   0.03709
  49        3PX        -0.08672  -0.40000   0.13051  -0.41034  -0.35308
  50        3PY         0.08022   0.44393  -0.09094   0.04849  -0.32589
  51        3PZ        -0.07079  -0.44045  -0.31397   0.08678  -0.05594
  52 5   H  1S          0.18280   0.09121   0.74278   0.44440   0.00640
  53        2S          0.27788   0.50319   0.07794   0.04226   0.03709
  54        3PX        -0.08672   0.40000  -0.13051  -0.41034  -0.35308
  55        3PY         0.08022  -0.44393   0.09094   0.04849  -0.32589
  56        3PZ         0.07079  -0.44045  -0.31397  -0.08678   0.05594
                          46        47        48        49        50
                           V         V         V         V         V
     Eigenvalues --     1.80286   1.80932   2.00923   2.28172   2.37528
   1 1   C  1S         -0.01812   0.00000   0.01913   0.03423   0.00000
   2        2S         -0.06702   0.00000   0.07594   0.90251   0.00000
   3        3S          0.58719   0.00000  -0.68781  -0.99465   0.00000
   4        4PX         0.05201   0.00000  -0.02466  -0.62041   0.00000
   5        4PY         0.02675   0.00000  -0.10713   0.50741   0.00000
   6        4PZ         0.00000  -0.03866   0.00000   0.00000   1.32998
   7        5PX         0.14492   0.00000  -0.00871  -0.95585   0.00000
   8        5PY        -0.25755   0.00000  -0.52543   0.80393   0.00000
   9        5PZ         0.00000  -0.08040   0.00000   0.00000   1.33727
  10        6D 0       -0.28142   0.00000   0.91861   0.53812   0.00000
  11        6D+1        0.00000   0.80561   0.00000   0.00000  -0.71432
  12        6D-1        0.00000   0.66760   0.00000   0.00000   1.16502
  13        6D+2        1.05135   0.00000   0.25527  -0.19078   0.00000
  14        6D-2       -0.35019   0.00000   0.45707  -0.38788   0.00000
  15 2   F  1S          0.01512   0.00000   0.00230   0.00932   0.00000
  16        2S          0.34699   0.00000  -0.31947  -1.39413   0.00000
  17        3S         -1.00974   0.00000   0.56520   2.44438   0.00000
  18        4PX         0.32389   0.00000  -0.00572   0.05064   0.00000
  19        4PY        -0.05384   0.00000  -0.10795   0.03143   0.00000
  20        4PZ         0.00000  -0.07192   0.00000   0.00000   0.07719
  21        5PX         0.24423   0.00000  -0.23114  -0.71067   0.00000
  22        5PY         0.16946   0.00000   0.12375  -0.02685   0.00000
  23        5PZ         0.00000  -0.12117   0.00000   0.00000  -0.16662
  24        6D 0       -0.00266   0.00000   0.06218   0.05171   0.00000
  25        6D+1        0.00000  -0.09956   0.00000   0.00000   0.04257
  26        6D-1        0.00000   0.03435   0.00000   0.00000   0.06352
  27        6D+2        0.04410   0.00000  -0.00208  -0.06642   0.00000
  28        6D-2        0.03974   0.00000  -0.05117   0.04334   0.00000
  29 3   Cl 1S          0.00575   0.00000   0.00327  -0.00917   0.00000
  30        2S         -0.00864   0.00000   0.00199  -0.09748   0.00000
  31        3S          0.06495   0.00000   0.04681  -0.25108   0.00000
  32        4S         -0.09784   0.00000  -0.13260   0.85562   0.00000
  33        5PX        -0.02111   0.00000  -0.01780  -0.01345   0.00000
  34        5PY        -0.02337   0.00000  -0.00320  -0.03169   0.00000
  35        5PZ         0.00000  -0.03197   0.00000   0.00000  -0.00153
  36        6PX         0.06902   0.00000   0.06413   0.05240   0.00000
  37        6PY         0.09491   0.00000   0.01459   0.13821   0.00000
  38        6PZ         0.00000   0.10390   0.00000   0.00000   0.00146
  39        7PX         0.01022   0.00000  -0.01915   0.33658   0.00000
  40        7PY        -0.00999   0.00000   0.00228   0.28663   0.00000
  41        7PZ         0.00000   0.04993   0.00000   0.00000  -0.12378
  42        8D 0       -0.05604   0.00000  -0.09330  -0.07896   0.00000
  43        8D+1        0.00000   0.10604   0.00000   0.00000   0.01922
  44        8D-1        0.00000   0.28793   0.00000   0.00000  -0.01639
  45        8D+2       -0.03955   0.00000   0.03692  -0.06123   0.00000
  46        8D-2        0.24155   0.00000   0.11341   0.17670   0.00000
  47 4   H  1S          0.04075  -0.02367   0.02942  -0.54099  -1.31823
  48        2S         -0.05500   0.06559   0.23230  -0.27401  -0.78024
  49        3PX         0.50643  -0.55813  -0.25663  -0.01289  -0.41255
  50        3PY         0.34811  -0.46647   0.64531   0.28346   0.58828
  51        3PZ         0.07597   0.00148  -0.51751   0.69588   0.94608
  52 5   H  1S          0.04075   0.02367   0.02942  -0.54099   1.31823
  53        2S         -0.05500  -0.06559   0.23230  -0.27401   0.78024
  54        3PX         0.50643   0.55813  -0.25663  -0.01289   0.41255
  55        3PY         0.34811   0.46647   0.64531   0.28346  -0.58828
  56        3PZ        -0.07597   0.00148   0.51751  -0.69588   0.94608
                          51        52        53        54        55
                           V         V         V         V         V
     Eigenvalues --     2.42637   3.57805   3.57921   3.77888   3.82122
   1 1   C  1S         -0.06313   0.00000   0.00366  -0.00145   0.00000
   2        2S          0.67673   0.00000  -0.03836  -0.03449   0.00000
   3        3S          2.36832   0.00000  -0.14494  -0.00496   0.00000
   4        4PX        -0.15732   0.00000   0.01784   0.05638   0.00000
   5        4PY         0.61200   0.00000  -0.03501   0.00057   0.00000
   6        4PZ         0.00000  -0.11810   0.00000   0.00000  -0.05724
   7        5PX         0.35009   0.00000  -0.00389   0.07014   0.00000
   8        5PY         0.27580   0.00000   0.03925   0.10726   0.00000
   9        5PZ         0.00000  -0.12228   0.00000   0.00000   0.17492
  10        6D 0        0.65631   0.00000  -0.16467   0.01591   0.00000
  11        6D+1        0.00000   0.04560   0.00000   0.00000   0.48858
  12        6D-1        0.00000  -0.21103   0.00000   0.00000  -0.04258
  13        6D+2       -0.07728   0.00000  -0.06374   0.03299   0.00000
  14        6D-2       -0.23705   0.00000   0.01169   0.41209   0.00000
  15 2   F  1S         -0.01192   0.00000  -0.00038   0.00073   0.00000
  16        2S          1.15176   0.00000  -0.03100   0.03081   0.00000
  17        3S         -1.77922   0.00000   0.05787  -0.06578   0.00000
  18        4PX        -0.21598   0.00000   0.00683   0.00085   0.00000
  19        4PY         0.02092   0.00000   0.00125   0.05700   0.00000
  20        4PZ         0.00000  -0.00779   0.00000   0.00000   0.05695
  21        5PX         0.62628   0.00000  -0.01929   0.00695   0.00000
  22        5PY        -0.05923   0.00000  -0.00381  -0.21476   0.00000
  23        5PZ         0.00000   0.02365   0.00000   0.00000  -0.23824
  24        6D 0       -0.01394   0.00000   0.86464   0.01719   0.00000
  25        6D+1        0.00000   0.02470   0.00000   0.00000   1.02040
  26        6D-1        0.00000   0.99801   0.00000   0.00000  -0.02701
  27        6D+2        0.10474   0.00000   0.49755   0.06572   0.00000
  28        6D-2       -0.00607   0.00000  -0.04573   1.01737   0.00000
  29 3   Cl 1S          0.00445   0.00000  -0.00365  -0.00104   0.00000
  30        2S          0.02373   0.00000  -0.00987   0.00326   0.00000
  31        3S          0.09340   0.00000  -0.06177  -0.01030   0.00000
  32        4S         -0.22690   0.00000   0.09325   0.02783   0.00000
  33        5PX        -0.00093   0.00000   0.00755  -0.00632   0.00000
  34        5PY        -0.00110   0.00000   0.00733   0.00879   0.00000
  35        5PZ         0.00000   0.00458   0.00000   0.00000  -0.00446
  36        6PX         0.01663   0.00000  -0.03431   0.02082   0.00000
  37        6PY         0.00870   0.00000  -0.03500  -0.03403   0.00000
  38        6PZ         0.00000  -0.01681   0.00000   0.00000   0.01823
  39        7PX        -0.15989   0.00000   0.04468  -0.00300   0.00000
  40        7PY        -0.08621   0.00000   0.04758  -0.00645   0.00000
  41        7PZ         0.00000   0.01954   0.00000   0.00000  -0.03248
  42        8D 0       -0.02619   0.00000   0.01371   0.02060   0.00000
  43        8D+1        0.00000  -0.01297   0.00000   0.00000  -0.01553
  44        8D-1        0.00000  -0.02028   0.00000   0.00000   0.01999
  45        8D+2       -0.03554   0.00000   0.00595   0.07764   0.00000
  46        8D-2       -0.07136   0.00000  -0.01375   0.01727   0.00000
  47 4   H  1S         -0.94182   0.16092   0.08465   0.06396   0.11271
  48        2S         -0.48553   0.03243   0.00202  -0.00924  -0.07679
  49        3PX        -0.48365   0.04742   0.02999  -0.08592  -0.12715
  50        3PY         0.49008  -0.01964  -0.08743  -0.01081  -0.07435
  51        3PZ         0.65463  -0.08323  -0.00234  -0.08296  -0.10864
  52 5   H  1S         -0.94182  -0.16092   0.08465   0.06396  -0.11271
  53        2S         -0.48553  -0.03243   0.00202  -0.00924   0.07679
  54        3PX        -0.48365  -0.04742   0.02999  -0.08592   0.12715
  55        3PY         0.49008   0.01964  -0.08743  -0.01081   0.07435
  56        3PZ        -0.65463  -0.08323   0.00234   0.08296  -0.10864
                          56
                           V
     Eigenvalues --     4.01996
   1 1   C  1S          0.03367
   2        2S         -0.28990
   3        3S         -0.39523
   4        4PX        -0.48647
   5        4PY         0.03084
   6        4PZ         0.00000
   7        5PX        -0.30106
   8        5PY         0.02928
   9        5PZ         0.00000
  10        6D 0        0.25780
  11        6D+1        0.00000
  12        6D-1        0.00000
  13        6D+2       -0.41025
  14        6D-2        0.06309
  15 2   F  1S         -0.01852
  16        2S         -0.47886
  17        3S          1.10573
  18        4PX         0.02917
  19        4PY        -0.00048
  20        4PZ         0.00000
  21        5PX        -0.63006
  22        5PY         0.01898
  23        5PZ         0.00000
  24        6D 0       -0.53246
  25        6D+1        0.00000
  26        6D-1        0.00000
  27        6D+2        0.91561
  28        6D-2       -0.05098
  29 3   Cl 1S         -0.00090
  30        2S          0.00179
  31        3S         -0.01006
  32        4S          0.00274
  33        5PX         0.00335
  34        5PY         0.00413
  35        5PZ         0.00000
  36        6PX        -0.01166
  37        6PY        -0.01957
  38        6PZ         0.00000
  39        7PX         0.03079
  40        7PY        -0.00817
  41        7PZ         0.00000
  42        8D 0        0.00471
  43        8D+1        0.00000
  44        8D-1        0.00000
  45        8D+2        0.00970
  46        8D-2       -0.02571
  47 4   H  1S         -0.05376
  48        2S          0.02466
  49        3PX        -0.03450
  50        3PY         0.00172
  51        3PZ        -0.00553
  52 5   H  1S         -0.05376
  53        2S          0.02466
  54        3PX        -0.03450
  55        3PY         0.00172
  56        3PZ         0.00553
     Density Matrix:
                           1         2         3         4         5
   1 1   C  1S          2.05557
   2        2S         -0.09842   0.35239
   3        3S         -0.11279   0.18896   0.11697
   4        4PX         0.01445  -0.01983  -0.06479   0.30665
   5        4PY        -0.00902   0.01310  -0.01109  -0.02069   0.36817
   6        4PZ         0.00000   0.00000   0.00000   0.00000   0.00000
   7        5PX         0.01730  -0.02901  -0.02677   0.06319  -0.00041
   8        5PY        -0.00144   0.00599  -0.00626   0.00256   0.11867
   9        5PZ         0.00000   0.00000   0.00000   0.00000   0.00000
  10        6D 0        0.00446  -0.00725  -0.00119  -0.01630   0.01878
  11        6D+1        0.00000   0.00000   0.00000   0.00000   0.00000
  12        6D-1        0.00000   0.00000   0.00000   0.00000   0.00000
  13        6D+2        0.00045   0.00167  -0.00567   0.02772   0.01059
  14        6D-2       -0.00224   0.00224   0.00133  -0.00776  -0.00944
  15 2   F  1S          0.00294   0.00213   0.02187  -0.02201   0.00243
  16        2S         -0.00225  -0.01277  -0.02889   0.05536  -0.00761
  17        3S          0.00743  -0.04674  -0.04041   0.00027   0.00310
  18        4PX         0.06674  -0.16936  -0.02424  -0.38098   0.04346
  19        4PY         0.00503  -0.00682  -0.02687   0.03531   0.04005
  20        4PZ         0.00000   0.00000   0.00000   0.00000   0.00000
  21        5PX         0.04107  -0.09630  -0.01278  -0.22280   0.02170
  22        5PY         0.00290  -0.00455  -0.01635   0.02139   0.00924
  23        5PZ         0.00000   0.00000   0.00000   0.00000   0.00000
  24        6D 0        0.00262  -0.00444  -0.00131  -0.00591   0.00081
  25        6D+1        0.00000   0.00000   0.00000   0.00000   0.00000
  26        6D-1        0.00000   0.00000   0.00000   0.00000   0.00000
  27        6D+2       -0.00469   0.00784   0.00243   0.00990  -0.00132
  28        6D-2        0.00045  -0.00084   0.00044  -0.00116  -0.00623
  29 3   Cl 1S         -0.00053  -0.00015  -0.00871  -0.00197  -0.00967
  30        2S          0.00171  -0.00077   0.03343   0.00521   0.02576
  31        3S         -0.00169  -0.01086  -0.02986  -0.01181  -0.06595
  32        4S          0.01973  -0.04236  -0.06381   0.02556   0.02673
  33        5PX         0.01307  -0.03188  -0.03027   0.00222   0.06047
  34        5PY         0.02256  -0.05249  -0.04692   0.05344   0.14586
  35        5PZ         0.00000   0.00000   0.00000   0.00000   0.00000
  36        6PX        -0.02994   0.07440   0.06969  -0.00487  -0.14258
  37        6PY        -0.04965   0.11908   0.10262  -0.12276  -0.34617
  38        6PZ         0.00000   0.00000   0.00000   0.00000   0.00000
  39        7PX        -0.01569   0.04182   0.04164  -0.00234  -0.06397
  40        7PY        -0.01644   0.04819   0.04396  -0.05844  -0.18822
  41        7PZ         0.00000   0.00000   0.00000   0.00000   0.00000
  42        8D 0        0.00661  -0.01426  -0.00960   0.00584   0.01808
  43        8D+1        0.00000   0.00000   0.00000   0.00000   0.00000
  44        8D-1        0.00000   0.00000   0.00000   0.00000   0.00000
  45        8D+2        0.00920  -0.01938  -0.01397   0.01904   0.01571
  46        8D-2       -0.00801   0.01752   0.01078   0.00374  -0.02734
  47 4   H  1S         -0.08091   0.16853   0.09868  -0.09249   0.15735
  48        2S         -0.00264   0.01453   0.00947  -0.02962   0.06762
  49        3PX        -0.00416   0.00637   0.00213   0.00631   0.00252
  50        3PY         0.00566  -0.00904  -0.00539   0.00226   0.00400
  51        3PZ         0.01055  -0.01705  -0.00959   0.00717  -0.01258
  52 5   H  1S         -0.08091   0.16853   0.09868  -0.09249   0.15735
  53        2S         -0.00264   0.01453   0.00947  -0.02962   0.06762
  54        3PX        -0.00416   0.00637   0.00213   0.00631   0.00252
  55        3PY         0.00566  -0.00904  -0.00539   0.00226   0.00400
  56        3PZ        -0.01055   0.01705   0.00959  -0.00717   0.01258
                           6         7         8         9        10
   6        4PZ         0.47534
   7        5PX         0.00000   0.02186
   8        5PY         0.00000   0.00669   0.04875
   9        5PZ         0.14459   0.00000   0.00000   0.05354
  10        6D 0        0.00000  -0.00248   0.00494   0.00000   0.00232
  11        6D+1       -0.01092   0.00000   0.00000   0.00189   0.00000
  12        6D-1        0.01082   0.00000   0.00000   0.00172   0.00000
  13        6D+2        0.00000   0.00308   0.00353   0.00000  -0.00153
  14        6D-2        0.00000  -0.00091   0.00250   0.00000  -0.00079
  15 2   F  1S          0.00000  -0.00416   0.00049   0.00000   0.00553
  16        2S          0.00000   0.02119  -0.00431   0.00000  -0.01265
  17        3S          0.00000   0.01035  -0.00516   0.00000  -0.00993
  18        4PX         0.00000  -0.04807   0.00734   0.00000   0.02472
  19        4PY         0.00000   0.04865   0.10714   0.00000  -0.00556
  20        4PZ        -0.01036   0.00000   0.00000   0.08671   0.00000
  21        5PX         0.00000  -0.02607   0.00407   0.00000   0.01385
  22        5PY         0.00000   0.03215   0.06616   0.00000  -0.00442
  23        5PZ        -0.02625   0.00000   0.00000   0.05234   0.00000
  24        6D 0        0.00000  -0.00085   0.00004   0.00000   0.00049
  25        6D+1       -0.00741   0.00000   0.00000  -0.00395   0.00000
  26        6D-1        0.00108   0.00000   0.00000   0.00036   0.00000
  27        6D+2        0.00000   0.00109  -0.00037   0.00000  -0.00082
  28        6D-2        0.00000  -0.00096  -0.00383   0.00000  -0.00010
  29 3   Cl 1S          0.00000   0.00175   0.00217   0.00000  -0.00160
  30        2S          0.00000  -0.00679  -0.01172   0.00000   0.00536
  31        3S          0.00000   0.00742  -0.00708   0.00000  -0.00832
  32        4S          0.00000   0.02108   0.02939   0.00000  -0.00583
  33        5PX         0.00000  -0.02158   0.01235   0.00000   0.00080
  34        5PY         0.00000   0.02431   0.04537   0.00000   0.00772
  35        5PZ         0.00788   0.00000   0.00000  -0.00687   0.00000
  36        6PX         0.00000   0.05426  -0.02648   0.00000  -0.00096
  37        6PY         0.00000  -0.05564  -0.10426   0.00000  -0.01671
  38        6PZ        -0.02406   0.00000   0.00000   0.01555   0.00000
  39        7PX         0.00000   0.04085  -0.00765   0.00000   0.00154
  40        7PY         0.00000  -0.02942  -0.05185   0.00000  -0.00992
  41        7PZ        -0.04385   0.00000   0.00000   0.00292   0.00000
  42        8D 0        0.00000   0.00261   0.00605   0.00000   0.00099
  43        8D+1        0.00862   0.00000   0.00000   0.00321   0.00000
  44        8D-1        0.02949   0.00000   0.00000   0.00877   0.00000
  45        8D+2        0.00000   0.00587   0.00416   0.00000   0.00059
  46        8D-2        0.00000   0.00063  -0.00835   0.00000  -0.00176
  47 4   H  1S          0.31887  -0.02874   0.04433   0.08619   0.00871
  48        2S          0.12783  -0.00600   0.01610   0.02635   0.00472
  49        3PX         0.00678   0.00071   0.00093   0.00207  -0.00036
  50        3PY        -0.01195   0.00108   0.00095  -0.00352   0.00037
  51        3PZ        -0.00665   0.00261  -0.00382  -0.00225  -0.00049
  52 5   H  1S         -0.31887  -0.02874   0.04433  -0.08619   0.00871
  53        2S         -0.12783  -0.00600   0.01610  -0.02635   0.00472
  54        3PX        -0.00678   0.00071   0.00093  -0.00207  -0.00036
  55        3PY         0.01195   0.00108   0.00095   0.00352   0.00037
  56        3PZ        -0.00665  -0.00261   0.00382  -0.00225   0.00049
                          11        12        13        14        15
  11        6D+1        0.00378
  12        6D-1       -0.00009   0.00202
  13        6D+2        0.00000   0.00000   0.00511
  14        6D-2        0.00000   0.00000  -0.00020   0.00473
  15 2   F  1S          0.00000   0.00000  -0.00916   0.00057   2.09485
  16        2S          0.00000   0.00000   0.02121  -0.00118  -0.19077
  17        3S          0.00000   0.00000   0.01968  -0.00022  -0.27801
  18        4PX         0.00000   0.00000  -0.03800   0.00696  -0.03111
  19        4PY         0.00000   0.00000   0.00309   0.05379   0.00247
  20        4PZ         0.05586  -0.00515   0.00000   0.00000   0.00000
  21        5PX         0.00000   0.00000  -0.02227   0.00425  -0.02323
  22        5PY         0.00000   0.00000   0.00115   0.03657   0.00174
  23        5PZ         0.03804  -0.00375   0.00000   0.00000   0.00000
  24        6D 0        0.00000   0.00000  -0.00062   0.00007   0.00107
  25        6D+1       -0.00088  -0.00007   0.00000   0.00000   0.00000
  26        6D-1        0.00003   0.00008   0.00000   0.00000   0.00000
  27        6D+2        0.00000   0.00000   0.00113  -0.00024  -0.00173
  28        6D-2        0.00000   0.00000  -0.00034  -0.00090   0.00007
  29 3   Cl 1S          0.00000   0.00000  -0.00200   0.00222   0.00029
  30        2S          0.00000   0.00000   0.00654  -0.00745  -0.00001
  31        3S          0.00000   0.00000  -0.01007   0.01176   0.00327
  32        4S          0.00000   0.00000  -0.00413   0.01099  -0.00620
  33        5PX         0.00000   0.00000   0.01649   0.00431  -0.00692
  34        5PY         0.00000   0.00000   0.00369  -0.01357   0.00004
  35        5PZ         0.00454   0.01650   0.00000   0.00000   0.00000
  36        6PX         0.00000   0.00000  -0.03836  -0.01034   0.01678
  37        6PY         0.00000   0.00000  -0.00672   0.03047  -0.00069
  38        6PZ        -0.01046  -0.03928   0.00000   0.00000   0.00000
  39        7PX         0.00000   0.00000  -0.02661  -0.00955   0.00952
  40        7PY         0.00000   0.00000  -0.00015   0.02100  -0.00496
  41        7PZ        -0.00768  -0.02982   0.00000   0.00000   0.00000
  42        8D 0        0.00000   0.00000   0.00093  -0.00074   0.00002
  43        8D+1       -0.00008  -0.00020   0.00000   0.00000   0.00000
  44        8D-1       -0.00141  -0.00022   0.00000   0.00000   0.00000
  45        8D+2        0.00000   0.00000   0.00143  -0.00242  -0.00031
  46        8D-2        0.00000   0.00000  -0.00137   0.00023   0.00037
  47 4   H  1S         -0.01232   0.01037  -0.00302  -0.00477   0.00547
  48        2S         -0.00867   0.00661  -0.00124  -0.00485  -0.00372
  49        3PX        -0.00014   0.00017   0.00074  -0.00024  -0.00082
  50        3PY         0.00041  -0.00019   0.00018  -0.00048   0.00055
  51        3PZ         0.00007  -0.00005  -0.00001   0.00009   0.00050
  52 5   H  1S          0.01232  -0.01037  -0.00302  -0.00477   0.00547
  53        2S          0.00867  -0.00661  -0.00124  -0.00485  -0.00372
  54        3PX         0.00014  -0.00017   0.00074  -0.00024  -0.00082
  55        3PY        -0.00041   0.00019   0.00018  -0.00048   0.00055
  56        3PZ         0.00007  -0.00005   0.00001  -0.00009  -0.00050
                          16        17        18        19        20
  16        2S          0.49846
  17        3S          0.55119   0.62986
  18        4PX         0.05895   0.15739   0.64470
  19        4PY        -0.00177  -0.02400   0.00902   0.88964
  20        4PZ         0.00000   0.00000   0.00000   0.00000   0.90890
  21        5PX         0.05903   0.11823   0.38539   0.01367   0.00000
  22        5PY        -0.00186  -0.01694   0.00825   0.59507   0.00000
  23        5PZ         0.00000   0.00000   0.00000   0.00000   0.61151
  24        6D 0       -0.00195  -0.00052   0.00993  -0.00076   0.00000
  25        6D+1        0.00000   0.00000   0.00000   0.00000  -0.01700
  26        6D-1        0.00000   0.00000   0.00000   0.00000   0.00062
  27        6D+2        0.00302   0.00069  -0.01744  -0.00148   0.00000
  28        6D-2       -0.00009   0.00035   0.00076  -0.01773   0.00000
  29 3   Cl 1S         -0.00078   0.00071   0.00226   0.00670   0.00000
  30        2S          0.00144  -0.00432  -0.00572  -0.02252   0.00000
  31        3S         -0.00586  -0.00165   0.01730   0.04510   0.00000
  32        4S          0.00835   0.01220  -0.00262   0.09771   0.00000
  33        5PX         0.01523   0.03584  -0.03887  -0.03408   0.00000
  34        5PY         0.00028  -0.00488  -0.01067  -0.03937   0.00000
  35        5PZ         0.00000   0.00000   0.00000   0.00000   0.00492
  36        6PX        -0.03717  -0.08644   0.09489   0.09091   0.00000
  37        6PY         0.00001   0.01378   0.02438   0.10017   0.00000
  38        6PZ         0.00000   0.00000   0.00000   0.00000  -0.01158
  39        7PX        -0.02430  -0.05764   0.07754   0.05897   0.00000
  40        7PY         0.00916   0.01910   0.00621   0.10939   0.00000
  41        7PZ         0.00000   0.00000   0.00000   0.00000  -0.01596
  42        8D 0        0.00046   0.00111   0.00196   0.00411   0.00000
  43        8D+1        0.00000   0.00000   0.00000   0.00000   0.00342
  44        8D-1        0.00000   0.00000   0.00000   0.00000  -0.00854
  45        8D+2        0.00109  -0.00070  -0.01109  -0.01016   0.00000
  46        8D-2       -0.00210  -0.00643  -0.01334  -0.00285   0.00000
  47 4   H  1S         -0.01956  -0.01701   0.03777  -0.04561  -0.09990
  48        2S          0.00548   0.01236   0.03943  -0.04756  -0.10994
  49        3PX         0.00029  -0.00150  -0.01184  -0.00024  -0.00000
  50        3PY        -0.00057  -0.00007   0.00218  -0.00260   0.00203
  51        3PZ        -0.00047  -0.00061  -0.00074   0.00105  -0.00156
  52 5   H  1S         -0.01956  -0.01701   0.03777  -0.04561   0.09990
  53        2S          0.00548   0.01236   0.03943  -0.04756   0.10994
  54        3PX         0.00029  -0.00150  -0.01184  -0.00024   0.00000
  55        3PY        -0.00057  -0.00007   0.00218  -0.00260  -0.00203
  56        3PZ         0.00047   0.00061   0.00074  -0.00105  -0.00156
                          21        22        23        24        25
  21        5PX         0.23211
  22        5PY         0.01070   0.39893
  23        5PZ         0.00000   0.00000   0.41222
  24        6D 0        0.00573  -0.00049   0.00000   0.00019
  25        6D+1        0.00000   0.00000  -0.01113   0.00000   0.00044
  26        6D-1        0.00000   0.00000   0.00038   0.00000  -0.00003
  27        6D+2       -0.01015  -0.00104   0.00000  -0.00032   0.00000
  28        6D-2        0.00035  -0.01159   0.00000   0.00003   0.00000
  29 3   Cl 1S          0.00090   0.00451   0.00000   0.00002   0.00000
  30        2S         -0.00165  -0.01456   0.00000  -0.00005   0.00000
  31        3S          0.00901   0.03192   0.00000   0.00008   0.00000
  32        4S         -0.00334   0.06208   0.00000  -0.00011   0.00000
  33        5PX        -0.03064  -0.02763   0.00000   0.00022   0.00000
  34        5PY        -0.00691  -0.03420   0.00000   0.00001   0.00000
  35        5PZ         0.00000   0.00000   0.00433   0.00000  -0.00018
  36        6PX         0.07424   0.07099   0.00000  -0.00051   0.00000
  37        6PY         0.01516   0.08488   0.00000  -0.00001   0.00000
  38        6PZ         0.00000   0.00000  -0.01012   0.00000   0.00054
  39        7PX         0.05854   0.04488   0.00000  -0.00016   0.00000
  40        7PY         0.00372   0.08278   0.00000  -0.00001   0.00000
  41        7PZ         0.00000   0.00000  -0.01142   0.00000   0.00096
  42        8D 0        0.00087   0.00181   0.00000   0.00011   0.00000
  43        8D+1        0.00000   0.00000   0.00192   0.00000  -0.00020
  44        8D-1        0.00000   0.00000  -0.00702   0.00000  -0.00031
  45        8D+2       -0.00675  -0.00776   0.00000  -0.00007   0.00000
  46        8D-2       -0.00707  -0.00054   0.00000  -0.00034   0.00000
  47 4   H  1S          0.02208  -0.03695  -0.07988  -0.00021  -0.00321
  48        2S          0.02310  -0.03484  -0.07883   0.00051   0.00003
  49        3PX        -0.00697  -0.00035  -0.00027  -0.00021  -0.00011
  50        3PY         0.00110  -0.00197   0.00186   0.00009   0.00015
  51        3PZ        -0.00051   0.00123  -0.00077   0.00008   0.00014
  52 5   H  1S          0.02208  -0.03695   0.07988  -0.00021   0.00321
  53        2S          0.02310  -0.03484   0.07883   0.00051  -0.00003
  54        3PX        -0.00697  -0.00035   0.00027  -0.00021   0.00011
  55        3PY         0.00110  -0.00197  -0.00186   0.00009  -0.00015
  56        3PZ         0.00051  -0.00123  -0.00077  -0.00008   0.00014
                          26        27        28        29        30
  26        6D-1        0.00000
  27        6D+2        0.00000   0.00055
  28        6D-2        0.00000  -0.00000   0.00044
  29 3   Cl 1S          0.00000  -0.00002   0.00003   2.17490
  30        2S          0.00000  -0.00000   0.00001  -0.63917   2.33885
  31        3S          0.00000  -0.00069   0.00007   0.06126  -0.20920
  32        4S          0.00000  -0.00052  -0.00235   0.10875  -0.39310
  33        5PX         0.00000   0.00048  -0.00049   0.00158  -0.00770
  34        5PY         0.00000  -0.00028  -0.00132   0.00421  -0.01879
  35        5PZ         0.00051   0.00000   0.00000   0.00000   0.00000
  36        6PX         0.00000  -0.00132   0.00108  -0.00387   0.01870
  37        6PY         0.00000   0.00050   0.00297  -0.01044   0.04629
  38        6PZ        -0.00128   0.00000   0.00000   0.00000   0.00000
  39        7PX         0.00000  -0.00129   0.00036  -0.00231   0.01027
  40        7PY         0.00000   0.00024   0.00052  -0.00528   0.02252
  41        7PZ        -0.00102   0.00000   0.00000   0.00000   0.00000
  42        8D 0        0.00000  -0.00021  -0.00033  -0.00079   0.00248
  43        8D+1        0.00001   0.00000   0.00000   0.00000   0.00000
  44        8D-1        0.00003   0.00000   0.00000   0.00000   0.00000
  45        8D+2        0.00000   0.00010  -0.00003  -0.00092   0.00289
  46        8D-2        0.00000   0.00054   0.00043   0.00096  -0.00293
  47 4   H  1S          0.00074   0.00063  -0.00158  -0.00320   0.00775
  48        2S          0.00031  -0.00076  -0.00002  -0.00060   0.00079
  49        3PX         0.00002   0.00037  -0.00007  -0.00009   0.00023
  50        3PY        -0.00002  -0.00016   0.00001  -0.00026   0.00089
  51        3PZ        -0.00001  -0.00016   0.00019   0.00018  -0.00038
  52 5   H  1S         -0.00074   0.00063  -0.00158  -0.00320   0.00775
  53        2S         -0.00031  -0.00076  -0.00002  -0.00060   0.00079
  54        3PX        -0.00002   0.00037  -0.00007  -0.00009   0.00023
  55        3PY         0.00002  -0.00016   0.00001  -0.00026   0.00089
  56        3PZ        -0.00001   0.00016  -0.00019  -0.00018   0.00038
                          31        32        33        34        35
  31        3S          0.54520
  32        4S          0.56379   0.63248
  33        5PX         0.00675   0.02696   2.12909
  34        5PY         0.02092   0.07340  -0.01569   2.09590
  35        5PZ         0.00000   0.00000   0.00000   0.00000   2.13817
  36        6PX        -0.01577  -0.06146  -0.31997   0.03822   0.00000
  37        6PY        -0.04961  -0.17128   0.03835  -0.23771   0.00000
  38        6PZ         0.00000   0.00000   0.00000   0.00000  -0.34167
  39        7PX        -0.01860  -0.04003  -0.24164   0.04710   0.00000
  40        7PY        -0.04470  -0.10641   0.04148  -0.15400   0.00000
  41        7PZ         0.00000   0.00000   0.00000   0.00000  -0.27129
  42        8D 0       -0.00453   0.00222   0.00328   0.01021   0.00000
  43        8D+1        0.00000   0.00000   0.00000   0.00000  -0.00304
  44        8D-1        0.00000   0.00000   0.00000   0.00000  -0.00758
  45        8D+2       -0.00513   0.00257  -0.00052   0.01552   0.00000
  46        8D-2        0.00538  -0.00285  -0.01318  -0.00937   0.00000
  47 4   H  1S         -0.02893  -0.01741  -0.00036   0.02899   0.02881
  48        2S         -0.00173   0.00959   0.00201   0.02941   0.03066
  49        3PX        -0.00052   0.00035   0.00023   0.00115   0.00020
  50        3PY        -0.00075   0.00126   0.00129   0.00384   0.00051
  51        3PZ         0.00125   0.00045  -0.00091  -0.00102   0.00070
  52 5   H  1S         -0.02893  -0.01741  -0.00036   0.02899  -0.02881
  53        2S         -0.00173   0.00959   0.00201   0.02941  -0.03066
  54        3PX        -0.00052   0.00035   0.00023   0.00115  -0.00020
  55        3PY        -0.00075   0.00126   0.00129   0.00384  -0.00051
  56        3PZ        -0.00125  -0.00045   0.00091   0.00102   0.00070
                          36        37        38        39        40
  36        6PX         0.81120
  37        6PY        -0.09195   0.61030
  38        6PZ         0.00000   0.00000   0.86230
  39        7PX         0.57241  -0.11404   0.00000   0.40872
  40        7PY        -0.09968   0.35853   0.00000  -0.09832   0.21879
  41        7PZ         0.00000   0.00000   0.64382   0.00000   0.00000
  42        8D 0       -0.00831  -0.02557   0.00000  -0.00347  -0.01308
  43        8D+1        0.00000   0.00000   0.00777   0.00000   0.00000
  44        8D-1        0.00000   0.00000   0.01936   0.00000   0.00000
  45        8D+2        0.00148  -0.03884   0.00000   0.00396  -0.02166
  46        8D-2        0.03325   0.02345   0.00000   0.02059   0.01049
  47 4   H  1S         -0.00022  -0.07437  -0.07279   0.01059  -0.05518
  48        2S         -0.00510  -0.07005  -0.07421   0.00379  -0.04466
  49        3PX        -0.00074  -0.00304  -0.00077  -0.00044  -0.00183
  50        3PY        -0.00292  -0.00924  -0.00147  -0.00126  -0.00486
  51        3PZ         0.00231   0.00315  -0.00162   0.00100   0.00267
  52 5   H  1S         -0.00022  -0.07437   0.07279   0.01059  -0.05518
  53        2S         -0.00510  -0.07005   0.07421   0.00379  -0.04466
  54        3PX        -0.00074  -0.00304   0.00077  -0.00044  -0.00183
  55        3PY        -0.00292  -0.00924   0.00147  -0.00126  -0.00486
  56        3PZ        -0.00231  -0.00315  -0.00162  -0.00100  -0.00267
                          41        42        43        44        45
  41        7PZ         0.48231
  42        8D 0        0.00000   0.00165
  43        8D+1        0.00529   0.00000   0.00025
  44        8D-1        0.01288   0.00000   0.00070   0.00240
  45        8D+2        0.00000   0.00202   0.00000   0.00000   0.00351
  46        8D-2        0.00000  -0.00202   0.00000   0.00000  -0.00165
  47 4   H  1S         -0.07082  -0.00069   0.00486   0.01920  -0.00583
  48        2S         -0.06134   0.00227   0.00123   0.00720   0.00193
  49        3PX        -0.00094  -0.00001   0.00012   0.00041   0.00017
  50        3PY        -0.00046   0.00063  -0.00023  -0.00081   0.00091
  51        3PZ        -0.00083   0.00021  -0.00015  -0.00045   0.00077
  52 5   H  1S          0.07082  -0.00069  -0.00486  -0.01920  -0.00583
  53        2S          0.06134   0.00227  -0.00123  -0.00720   0.00193
  54        3PX         0.00094  -0.00001  -0.00012  -0.00041   0.00017
  55        3PY         0.00046   0.00063   0.00023   0.00081   0.00091
  56        3PZ        -0.00083  -0.00021  -0.00015  -0.00045  -0.00077
                          46        47        48        49        50
  46        8D-2        0.00353
  47 4   H  1S         -0.00315   0.39275
  48        2S         -0.00403   0.14606   0.07202
  49        3PX         0.00020   0.00695   0.00199   0.00039
  50        3PY        -0.00073  -0.01090  -0.00278  -0.00026   0.00063
  51        3PZ         0.00014  -0.01872  -0.00489  -0.00036   0.00051
  52 5   H  1S         -0.00315  -0.06188  -0.05667  -0.00217   0.00521
  53        2S         -0.00403  -0.05667  -0.03312  -0.00169   0.00373
  54        3PX         0.00020  -0.00217  -0.00169   0.00019   0.00008
  55        3PY        -0.00073   0.00521   0.00373   0.00008   0.00001
  56        3PZ        -0.00014   0.01041   0.00203   0.00017  -0.00017
                          51        52        53        54        55
  51        3PZ         0.00145
  52 5   H  1S         -0.01041   0.39275
  53        2S         -0.00203   0.14606   0.07202
  54        3PX        -0.00017   0.00695   0.00199   0.00039
  55        3PY         0.00017  -0.01090  -0.00278  -0.00026   0.00063
  56        3PZ        -0.00125   0.01872   0.00489   0.00036  -0.00051
                          56
  56        3PZ         0.00145
    Full Mulliken population analysis:
                           1         2         3         4         5
   1 1   C  1S          2.05557
   2        2S         -0.02029   0.35239
   3        3S         -0.02026   0.15125   0.11697
   4        4PX         0.00000   0.00000   0.00000   0.30665
   5        4PY         0.00000   0.00000   0.00000  -0.00000   0.36817
   6        4PZ         0.00000   0.00000   0.00000   0.00000   0.00000
   7        5PX         0.00000   0.00000   0.00000   0.03354  -0.00000
   8        5PY         0.00000   0.00000   0.00000   0.00000   0.06298
   9        5PZ         0.00000   0.00000   0.00000   0.00000   0.00000
  10        6D 0       -0.00000   0.00000   0.00000   0.00000   0.00000
  11        6D+1        0.00000   0.00000   0.00000   0.00000   0.00000
  12        6D-1        0.00000   0.00000   0.00000   0.00000   0.00000
  13        6D+2       -0.00000   0.00000  -0.00000   0.00000   0.00000
  14        6D-2       -0.00000   0.00000   0.00000   0.00000   0.00000
  15 2   F  1S          0.00000   0.00002   0.00076  -0.00046  -0.00000
  16        2S         -0.00000  -0.00108  -0.00576   0.00834   0.00005
  17        3S          0.00023  -0.01113  -0.01655   0.00008  -0.00004
  18        4PX        -0.00017   0.01737   0.00234   0.06264   0.00041
  19        4PY         0.00000  -0.00003  -0.00012   0.00033   0.00148
  20        4PZ         0.00000   0.00000   0.00000   0.00000   0.00000
  21        5PX        -0.00416   0.04396   0.00530   0.08291   0.00057
  22        5PY         0.00001  -0.00010  -0.00032   0.00056   0.00179
  23        5PZ         0.00000   0.00000   0.00000   0.00000   0.00000
  24        6D 0       -0.00000   0.00020   0.00002   0.00039   0.00000
  25        6D+1        0.00000   0.00000   0.00000   0.00000   0.00000
  26        6D-1        0.00000   0.00000   0.00000   0.00000   0.00000
  27        6D+2       -0.00002   0.00062   0.00007   0.00112   0.00001
  28        6D-2       -0.00000   0.00001  -0.00000   0.00002   0.00038
  29 3   Cl 1S         -0.00000  -0.00000  -0.00006   0.00000   0.00001
  30        2S          0.00000  -0.00000   0.00169  -0.00002  -0.00026
  31        3S         -0.00000  -0.00075  -0.00640   0.00052   0.00691
  32        4S          0.00052  -0.00782  -0.02406  -0.00179  -0.00450
  33        5PX         0.00000  -0.00008  -0.00026  -0.00000  -0.00032
  34        5PY         0.00000  -0.00030  -0.00096  -0.00029  -0.00165
  35        5PZ         0.00000   0.00000   0.00000   0.00000   0.00000
  36        6PX        -0.00009   0.00363   0.00554  -0.00001   0.01143
  37        6PY        -0.00036   0.01391   0.01952   0.00984   0.05386
  38        6PZ         0.00000   0.00000   0.00000   0.00000   0.00000
  39        7PX        -0.00050   0.00681   0.00876  -0.00018   0.00870
  40        7PY        -0.00126   0.01878   0.02215   0.00795   0.03572
  41        7PZ         0.00000   0.00000   0.00000   0.00000   0.00000
  42        8D 0       -0.00005   0.00115   0.00059   0.00025   0.00184
  43        8D+1        0.00000   0.00000   0.00000   0.00000   0.00000
  44        8D-1        0.00000   0.00000   0.00000   0.00000   0.00000
  45        8D+2       -0.00008   0.00190   0.00105   0.00203   0.00159
  46        8D-2       -0.00007   0.00173   0.00082   0.00001   0.00405
  47 4   H  1S         -0.00424   0.05709   0.04531   0.01166   0.03009
  48        2S         -0.00024   0.00687   0.00697   0.00198   0.00687
  49        3PX        -0.00013   0.00082   0.00017   0.00099   0.00025
  50        3PY        -0.00027   0.00177   0.00064   0.00022   0.00029
  51        3PZ        -0.00086   0.00560   0.00191   0.00118   0.00315
  52 5   H  1S         -0.00424   0.05709   0.04531   0.01166   0.03009
  53        2S         -0.00024   0.00687   0.00697   0.00198   0.00687
  54        3PX        -0.00013   0.00082   0.00017   0.00099   0.00025
  55        3PY        -0.00027   0.00177   0.00064   0.00022   0.00029
  56        3PZ        -0.00086   0.00560   0.00191   0.00118   0.00315
                           6         7         8         9        10
   6        4PZ         0.47534
   7        5PX         0.00000   0.02186
   8        5PY         0.00000   0.00000   0.04875
   9        5PZ         0.07674   0.00000   0.00000   0.05354
  10        6D 0        0.00000   0.00000   0.00000   0.00000   0.00232
  11        6D+1        0.00000   0.00000   0.00000   0.00000   0.00000
  12        6D-1        0.00000   0.00000   0.00000   0.00000   0.00000
  13        6D+2        0.00000   0.00000   0.00000   0.00000   0.00000
  14        6D-2        0.00000   0.00000   0.00000   0.00000   0.00000
  15 2   F  1S          0.00000  -0.00029  -0.00000   0.00000  -0.00016
  16        2S          0.00000   0.00763   0.00007   0.00000   0.00184
  17        3S          0.00000   0.00617   0.00014   0.00000   0.00155
  18        4PX         0.00000   0.00363   0.00006   0.00000   0.00307
  19        4PY         0.00000   0.00038   0.00995   0.00000   0.00003
  20        4PZ        -0.00039   0.00000   0.00000   0.00808   0.00000
  21        5PX         0.00000   0.00413   0.00011   0.00000   0.00110
  22        5PY         0.00000   0.00084   0.02667   0.00000   0.00002
  23        5PZ        -0.00512   0.00000   0.00000   0.02116   0.00000
  24        6D 0        0.00000  -0.00000  -0.00000   0.00000   0.00003
  25        6D+1        0.00045   0.00000   0.00000   0.00020   0.00000
  26        6D-1        0.00000   0.00000   0.00000   0.00000   0.00000
  27        6D+2        0.00000  -0.00000   0.00000   0.00000   0.00004
  28        6D-2        0.00000   0.00000   0.00020   0.00000  -0.00000
  29 3   Cl 1S          0.00000  -0.00001  -0.00004   0.00000   0.00000
  30        2S          0.00000   0.00034   0.00141   0.00000  -0.00009
  31        3S          0.00000  -0.00124   0.00282   0.00000   0.00079
  32        4S          0.00000  -0.00455  -0.01521   0.00000   0.00047
  33        5PX         0.00000  -0.00019  -0.00024   0.00000  -0.00001
  34        5PY         0.00000  -0.00047  -0.00131   0.00000  -0.00013
  35        5PZ         0.00001   0.00000   0.00000  -0.00012   0.00000
  36        6PX         0.00000   0.00521   0.00392   0.00000   0.00005
  37        6PY         0.00000   0.00824   0.02052   0.00000   0.00204
  38        6PZ        -0.00088   0.00000   0.00000   0.00246   0.00000
  39        7PX         0.00000   0.01274   0.00198   0.00000  -0.00002
  40        7PY         0.00000   0.00761   0.01036   0.00000   0.00037
  41        7PZ        -0.00596   0.00000   0.00000   0.00123   0.00000
  42        8D 0        0.00000   0.00003   0.00017   0.00000   0.00009
  43        8D+1        0.00028   0.00000   0.00000   0.00019   0.00000
  44        8D-1        0.00228   0.00000   0.00000   0.00127   0.00000
  45        8D+2        0.00000   0.00069  -0.00004   0.00000   0.00004
  46        8D-2        0.00000   0.00005   0.00065   0.00000   0.00011
  47 4   H  1S          0.10228   0.00518   0.01213   0.03955   0.00174
  48        2S          0.02177   0.00102   0.00416   0.01141   0.00018
  49        3PX         0.00112   0.00019   0.00004   0.00017  -0.00007
  50        3PY         0.00299   0.00005   0.00021   0.00043  -0.00011
  51        3PZ         0.00132   0.00021   0.00047  -0.00019  -0.00007
  52 5   H  1S          0.10228   0.00518   0.01213   0.03955   0.00174
  53        2S          0.02177   0.00102   0.00416   0.01141   0.00018
  54        3PX         0.00112   0.00019   0.00004   0.00017  -0.00007
  55        3PY         0.00299   0.00005   0.00021   0.00043  -0.00011
  56        3PZ         0.00132   0.00021   0.00047  -0.00019  -0.00007
                          11        12        13        14        15
  11        6D+1        0.00378
  12        6D-1       -0.00000   0.00202
  13        6D+2        0.00000   0.00000   0.00511
  14        6D-2        0.00000   0.00000   0.00000   0.00473
  15 2   F  1S          0.00000   0.00000  -0.00044  -0.00000   2.09485
  16        2S          0.00000   0.00000   0.00531   0.00003  -0.04414
  17        3S          0.00000   0.00000   0.00531   0.00001  -0.05144
  18        4PX         0.00000   0.00000   0.00813   0.00018   0.00000
  19        4PY         0.00000   0.00000   0.00007   0.00695   0.00000
  20        4PZ         0.00730   0.00003   0.00000   0.00000   0.00000
  21        5PX         0.00000   0.00000   0.00301   0.00012   0.00000
  22        5PY         0.00000   0.00000   0.00004   0.01230   0.00000
  23        5PZ         0.01287   0.00006   0.00000   0.00000   0.00000
  24        6D 0        0.00000   0.00000   0.00003   0.00000  -0.00000
  25        6D+1        0.00016  -0.00000   0.00000   0.00000   0.00000
  26        6D-1        0.00000   0.00000   0.00000   0.00000   0.00000
  27        6D+2        0.00000   0.00000   0.00013   0.00001   0.00000
  28        6D-2        0.00000   0.00000   0.00001   0.00016   0.00000
  29 3   Cl 1S          0.00000   0.00000   0.00000   0.00000   0.00000
  30        2S          0.00000   0.00000  -0.00013  -0.00015  -0.00000
  31        3S          0.00000   0.00000   0.00116   0.00137   0.00000
  32        4S          0.00000   0.00000   0.00040   0.00109  -0.00001
  33        5PX         0.00000   0.00000  -0.00022   0.00001  -0.00000
  34        5PY         0.00000   0.00000  -0.00007  -0.00031   0.00000
  35        5PZ        -0.00001  -0.00012   0.00000   0.00000   0.00000
  36        6PX         0.00000   0.00000   0.00519   0.00010   0.00000
  37        6PY         0.00000   0.00000   0.00080   0.00551  -0.00000
  38        6PZ         0.00045   0.00404   0.00000   0.00000   0.00000
  39        7PX         0.00000   0.00000   0.00366   0.00094   0.00007
  40        7PY         0.00000   0.00000  -0.00000   0.00199  -0.00003
  41        7PZ         0.00054   0.00498   0.00000   0.00000   0.00000
  42        8D 0        0.00000   0.00000   0.00006   0.00005  -0.00000
  43        8D+1       -0.00000   0.00002   0.00000   0.00000   0.00000
  44        8D-1        0.00013   0.00004   0.00000   0.00000   0.00000
  45        8D+2        0.00000   0.00000  -0.00002   0.00051  -0.00000
  46        8D-2        0.00000   0.00000   0.00029  -0.00000   0.00000
  47 4   H  1S          0.00225   0.00287   0.00014   0.00052   0.00000
  48        2S          0.00031   0.00036   0.00001   0.00010  -0.00005
  49        3PX        -0.00004   0.00003  -0.00013  -0.00004  -0.00000
  50        3PY         0.00006  -0.00003  -0.00003   0.00003  -0.00000
  51        3PZ         0.00001   0.00001  -0.00000   0.00001  -0.00000
  52 5   H  1S          0.00225   0.00287   0.00014   0.00052   0.00000
  53        2S          0.00031   0.00036   0.00001   0.00010  -0.00005
  54        3PX        -0.00004   0.00003  -0.00013  -0.00004  -0.00000
  55        3PY         0.00006  -0.00003  -0.00003   0.00003  -0.00000
  56        3PZ         0.00001   0.00001  -0.00000   0.00001  -0.00000
                          16        17        18        19        20
  16        2S          0.49846
  17        3S          0.43518   0.62986
  18        4PX         0.00000   0.00000   0.64470
  19        4PY         0.00000   0.00000   0.00000   0.88964
  20        4PZ         0.00000   0.00000   0.00000   0.00000   0.90890
  21        5PX         0.00000   0.00000   0.18898   0.00000   0.00000
  22        5PY         0.00000   0.00000   0.00000   0.29179   0.00000
  23        5PZ         0.00000   0.00000   0.00000   0.00000   0.29985
  24        6D 0        0.00000   0.00000   0.00000   0.00000   0.00000
  25        6D+1        0.00000   0.00000   0.00000   0.00000   0.00000
  26        6D-1        0.00000   0.00000   0.00000   0.00000   0.00000
  27        6D+2       -0.00000  -0.00000   0.00000   0.00000   0.00000
  28        6D-2       -0.00000   0.00000   0.00000   0.00000   0.00000
  29 3   Cl 1S         -0.00000   0.00000  -0.00000  -0.00000   0.00000
  30        2S          0.00000  -0.00000   0.00000   0.00000   0.00000
  31        3S         -0.00000  -0.00001  -0.00000  -0.00001   0.00000
  32        4S          0.00009   0.00053   0.00002  -0.00067   0.00000
  33        5PX         0.00000   0.00001   0.00000   0.00000   0.00000
  34        5PY         0.00000  -0.00000   0.00000   0.00000   0.00000
  35        5PZ         0.00000   0.00000   0.00000   0.00000   0.00000
  36        6PX        -0.00002  -0.00090  -0.00006  -0.00005   0.00000
  37        6PY         0.00000   0.00011  -0.00001  -0.00004   0.00000
  38        6PZ         0.00000   0.00000   0.00000   0.00000  -0.00000
  39        7PX        -0.00117  -0.00744  -0.00206  -0.00156   0.00000
  40        7PY         0.00034   0.00189  -0.00016  -0.00135   0.00000
  41        7PZ         0.00000   0.00000   0.00000   0.00000  -0.00013
  42        8D 0       -0.00000  -0.00001   0.00000   0.00000   0.00000
  43        8D+1        0.00000   0.00000   0.00000   0.00000   0.00000
  44        8D-1        0.00000   0.00000   0.00000   0.00000  -0.00000
  45        8D+2        0.00000  -0.00000   0.00000   0.00000   0.00000
  46        8D-2       -0.00000  -0.00010   0.00002   0.00000   0.00000
  47 4   H  1S         -0.00011  -0.00071  -0.00028  -0.00012  -0.00039
  48        2S          0.00047   0.00254  -0.00161  -0.00067  -0.00233
  49        3PX         0.00000  -0.00007   0.00008  -0.00000  -0.00000
  50        3PY         0.00000   0.00000   0.00001   0.00000  -0.00000
  51        3PZ         0.00000   0.00001  -0.00000  -0.00000   0.00000
  52 5   H  1S         -0.00011  -0.00071  -0.00028  -0.00012  -0.00039
  53        2S          0.00047   0.00254  -0.00161  -0.00067  -0.00233
  54        3PX         0.00000  -0.00007   0.00008  -0.00000  -0.00000
  55        3PY         0.00000   0.00000   0.00001   0.00000  -0.00000
  56        3PZ         0.00000   0.00001  -0.00000  -0.00000   0.00000
                          21        22        23        24        25
  21        5PX         0.23211
  22        5PY         0.00000   0.39893
  23        5PZ         0.00000   0.00000   0.41222
  24        6D 0        0.00000   0.00000   0.00000   0.00019
  25        6D+1        0.00000   0.00000   0.00000   0.00000   0.00044
  26        6D-1        0.00000   0.00000   0.00000   0.00000  -0.00000
  27        6D+2        0.00000   0.00000   0.00000   0.00000   0.00000
  28        6D-2        0.00000   0.00000   0.00000  -0.00000   0.00000
  29 3   Cl 1S         -0.00000  -0.00000   0.00000  -0.00000   0.00000
  30        2S          0.00000   0.00001   0.00000   0.00000   0.00000
  31        3S         -0.00020  -0.00055   0.00000  -0.00000   0.00000
  32        4S          0.00027  -0.00390   0.00000   0.00000   0.00000
  33        5PX         0.00004   0.00003   0.00000  -0.00000   0.00000
  34        5PY         0.00001   0.00002   0.00000  -0.00000   0.00000
  35        5PZ         0.00000   0.00000   0.00000   0.00000   0.00000
  36        6PX        -0.00235  -0.00205   0.00000   0.00000   0.00000
  37        6PY        -0.00044  -0.00137   0.00000   0.00000   0.00000
  38        6PZ         0.00000   0.00000  -0.00006   0.00000  -0.00000
  39        7PX        -0.00830  -0.00702   0.00000   0.00000   0.00000
  40        7PY        -0.00058  -0.00476   0.00000   0.00000   0.00000
  41        7PZ         0.00000   0.00000  -0.00071   0.00000  -0.00001
  42        8D 0        0.00002   0.00004   0.00000   0.00000   0.00000
  43        8D+1        0.00000   0.00000   0.00002   0.00000   0.00000
  44        8D-1        0.00000   0.00000  -0.00006   0.00000   0.00000
  45        8D+2        0.00003   0.00016   0.00000   0.00000   0.00000
  46        8D-2        0.00034   0.00002   0.00000   0.00000   0.00000
  47 4   H  1S         -0.00240  -0.00140  -0.00452   0.00000   0.00002
  48        2S         -0.00508  -0.00266  -0.00901  -0.00000  -0.00000
  49        3PX         0.00077  -0.00002  -0.00002   0.00000   0.00000
  50        3PY         0.00005  -0.00002  -0.00005   0.00000   0.00000
  51        3PZ        -0.00004  -0.00003   0.00001   0.00000   0.00000
  52 5   H  1S         -0.00240  -0.00140  -0.00452   0.00000   0.00002
  53        2S         -0.00508  -0.00266  -0.00901  -0.00000  -0.00000
  54        3PX         0.00077  -0.00002  -0.00002   0.00000   0.00000
  55        3PY         0.00005  -0.00002  -0.00005   0.00000   0.00000
  56        3PZ        -0.00004  -0.00003   0.00001   0.00000   0.00000
                          26        27        28        29        30
  26        6D-1        0.00000
  27        6D+2        0.00000   0.00055
  28        6D-2        0.00000  -0.00000   0.00044
  29 3   Cl 1S          0.00000  -0.00000   0.00000   2.17490
  30        2S          0.00000  -0.00000   0.00000  -0.17657   2.33885
  31        3S          0.00000  -0.00000   0.00000  -0.00322  -0.03462
  32        4S          0.00000  -0.00000  -0.00002   0.00504  -0.12091
  33        5PX         0.00000   0.00000  -0.00000   0.00000   0.00000
  34        5PY         0.00000  -0.00000  -0.00000   0.00000   0.00000
  35        5PZ        -0.00000   0.00000   0.00000   0.00000   0.00000
  36        6PX         0.00000  -0.00000   0.00000   0.00000   0.00000
  37        6PY         0.00000   0.00000   0.00000   0.00000   0.00000
  38        6PZ         0.00000   0.00000   0.00000   0.00000   0.00000
  39        7PX         0.00000   0.00000   0.00001   0.00000   0.00000
  40        7PY         0.00000   0.00000   0.00001   0.00000   0.00000
  41        7PZ         0.00001   0.00000   0.00000   0.00000   0.00000
  42        8D 0        0.00000   0.00000   0.00000   0.00000  -0.00000
  43        8D+1       -0.00000   0.00000   0.00000   0.00000   0.00000
  44        8D-1       -0.00000   0.00000   0.00000   0.00000   0.00000
  45        8D+2        0.00000  -0.00000  -0.00000  -0.00000  -0.00000
  46        8D-2        0.00000   0.00000   0.00000   0.00000  -0.00000
  47 4   H  1S          0.00000   0.00000   0.00001  -0.00000   0.00000
  48        2S          0.00000  -0.00001   0.00000  -0.00000   0.00002
  49        3PX         0.00000   0.00000   0.00000   0.00000  -0.00000
  50        3PY         0.00000   0.00000   0.00000   0.00000  -0.00000
  51        3PZ         0.00000   0.00000   0.00000  -0.00000   0.00000
  52 5   H  1S          0.00000   0.00000   0.00001  -0.00000   0.00000
  53        2S          0.00000  -0.00001   0.00000  -0.00000   0.00002
  54        3PX         0.00000   0.00000   0.00000   0.00000  -0.00000
  55        3PY         0.00000   0.00000   0.00000   0.00000  -0.00000
  56        3PZ         0.00000   0.00000   0.00000  -0.00000   0.00000
                          31        32        33        34        35
  31        3S          0.54520
  32        4S          0.47561   0.63248
  33        5PX         0.00000   0.00000   2.12909
  34        5PY         0.00000   0.00000  -0.00000   2.09590
  35        5PZ         0.00000   0.00000   0.00000   0.00000   2.13817
  36        6PX         0.00000   0.00000  -0.10885   0.00000   0.00000
  37        6PY         0.00000   0.00000   0.00000  -0.08087   0.00000
  38        6PZ         0.00000   0.00000   0.00000   0.00000  -0.11624
  39        7PX         0.00000   0.00000  -0.02164   0.00000   0.00000
  40        7PY         0.00000   0.00000   0.00000  -0.01379   0.00000
  41        7PZ         0.00000   0.00000   0.00000   0.00000  -0.02429
  42        8D 0        0.00000  -0.00000   0.00000   0.00000   0.00000
  43        8D+1        0.00000   0.00000   0.00000   0.00000   0.00000
  44        8D-1        0.00000   0.00000   0.00000   0.00000   0.00000
  45        8D+2        0.00000  -0.00000   0.00000   0.00000   0.00000
  46        8D-2        0.00000  -0.00000   0.00000   0.00000   0.00000
  47 4   H  1S         -0.00023  -0.00092  -0.00000   0.00001   0.00000
  48        2S         -0.00018   0.00210   0.00000   0.00027   0.00012
  49        3PX         0.00000  -0.00000   0.00000  -0.00000  -0.00000
  50        3PY         0.00001  -0.00007  -0.00000  -0.00000  -0.00000
  51        3PZ        -0.00000  -0.00001   0.00000   0.00000  -0.00000
  52 5   H  1S         -0.00023  -0.00092  -0.00000   0.00001   0.00000
  53        2S         -0.00018   0.00210   0.00000   0.00027   0.00012
  54        3PX         0.00000  -0.00000   0.00000  -0.00000  -0.00000
  55        3PY         0.00001  -0.00007  -0.00000  -0.00000  -0.00000
  56        3PZ        -0.00000  -0.00001   0.00000   0.00000  -0.00000
                          36        37        38        39        40
  36        6PX         0.81120
  37        6PY        -0.00000   0.61030
  38        6PZ         0.00000   0.00000   0.86230
  39        7PX         0.35454  -0.00000   0.00000   0.40872
  40        7PY        -0.00000   0.22206   0.00000  -0.00000   0.21879
  41        7PZ         0.00000   0.00000   0.39877   0.00000   0.00000
  42        8D 0        0.00000   0.00000   0.00000   0.00000   0.00000
  43        8D+1        0.00000   0.00000   0.00000   0.00000   0.00000
  44        8D-1        0.00000   0.00000   0.00000   0.00000   0.00000
  45        8D+2        0.00000   0.00000   0.00000   0.00000   0.00000
  46        8D-2        0.00000   0.00000   0.00000   0.00000   0.00000
  47 4   H  1S         -0.00000  -0.00122  -0.00049   0.00028  -0.00941
  48        2S         -0.00008  -0.00691  -0.00302   0.00020  -0.01566
  49        3PX        -0.00000   0.00001   0.00000  -0.00002   0.00005
  50        3PY         0.00001   0.00017   0.00001   0.00003   0.00063
  51        3PZ        -0.00000  -0.00003   0.00000  -0.00001  -0.00018
  52 5   H  1S         -0.00000  -0.00122  -0.00049   0.00028  -0.00941
  53        2S         -0.00008  -0.00691  -0.00302   0.00020  -0.01566
  54        3PX        -0.00000   0.00001   0.00000  -0.00002   0.00005
  55        3PY         0.00001   0.00017   0.00001   0.00003   0.00063
  56        3PZ        -0.00000  -0.00003   0.00000  -0.00001  -0.00018
                          41        42        43        44        45
  41        7PZ         0.48231
  42        8D 0        0.00000   0.00165
  43        8D+1        0.00000   0.00000   0.00025
  44        8D-1        0.00000   0.00000   0.00000   0.00240
  45        8D+2        0.00000   0.00000   0.00000   0.00000   0.00351
  46        8D-2        0.00000   0.00000   0.00000   0.00000  -0.00000
  47 4   H  1S         -0.00498   0.00001   0.00001   0.00030   0.00011
  48        2S         -0.00886  -0.00004   0.00001   0.00029  -0.00009
  49        3PX         0.00001  -0.00000   0.00000  -0.00000   0.00000
  50        3PY         0.00003   0.00001   0.00000   0.00002   0.00002
  51        3PZ        -0.00001   0.00000   0.00000   0.00000   0.00001
  52 5   H  1S         -0.00498   0.00001   0.00001   0.00030   0.00011
  53        2S         -0.00886  -0.00004   0.00001   0.00029  -0.00009
  54        3PX         0.00001  -0.00000   0.00000  -0.00000   0.00000
  55        3PY         0.00003   0.00001   0.00000   0.00002   0.00002
  56        3PZ        -0.00001   0.00000   0.00000   0.00000   0.00001
                          46        47        48        49        50
  46        8D-2        0.00353
  47 4   H  1S         -0.00002   0.39275
  48        2S         -0.00006   0.10003   0.07202
  49        3PX         0.00000   0.00000   0.00000   0.00039
  50        3PY         0.00001   0.00000   0.00000  -0.00000   0.00063
  51        3PZ        -0.00000   0.00000   0.00000   0.00000   0.00000
  52 5   H  1S         -0.00002  -0.00365  -0.01294  -0.00000  -0.00000
  53        2S         -0.00006  -0.01294  -0.01669  -0.00000  -0.00000
  54        3PX         0.00000  -0.00000  -0.00000   0.00000   0.00000
  55        3PY         0.00001  -0.00000  -0.00000   0.00000   0.00000
  56        3PZ        -0.00000   0.00081   0.00030   0.00000   0.00000
                          51        52        53        54        55
  51        3PZ         0.00145
  52 5   H  1S          0.00081   0.39275
  53        2S          0.00030   0.10003   0.07202
  54        3PX         0.00000   0.00000   0.00000   0.00039
  55        3PY         0.00000   0.00000   0.00000  -0.00000   0.00063
  56        3PZ         0.00015   0.00000   0.00000   0.00000   0.00000
                          56
  56        3PZ         0.00145
     Gross orbital populations:
                           1
   1 1   C  1S          1.99752
   2        2S          0.71648
   3        3S          0.37206
   4        4PX         0.54649
   5        4PY         0.63447
   6        4PZ         0.80171
   7        5PX         0.11964
   8        5PY         0.20794
   9        5PZ         0.26750
  10        6D 0        0.01690
  11        6D+1        0.03038
  12        6D-1        0.01754
  13        6D+2        0.03781
  14        6D-2        0.03682
  15 2   F  1S          1.99863
  16        2S          0.90590
  17        3S          0.99699
  18        4PX         0.92545
  19        4PY         1.19523
  20        4PZ         1.21822
  21        5PX         0.53356
  22        5PY         0.70492
  23        5PZ         0.71304
  24        6D 0        0.00085
  25        6D+1        0.00129
  26        6D-1        0.00002
  27        6D+2        0.00253
  28        6D-2        0.00122
  29 3   Cl 1S          2.00006
  30        2S          2.00957
  31        3S          0.98655
  32        4S          0.93529
  33        5PX         1.99737
  34        5PY         1.99635
  35        5PZ         1.99764
  36        6PX         1.08627
  37        6PY         0.86767
  38        6PZ         1.14385
  39        7PX         0.75799
  40        7PY         0.47692
  41        7PZ         0.82912
  42        8D 0        0.00582
  43        8D+1        0.00080
  44        8D-1        0.00728
  45        8D+2        0.01145
  46        8D-2        0.01129
  47 4   H  1S          0.75711
  48        2S          0.15420
  49        3PX         0.00455
  50        3PY         0.00774
  51        3PZ         0.01518
  52 5   H  1S          0.75711
  53        2S          0.15420
  54        3PX         0.00455
  55        3PY         0.00774
  56        3PZ         0.01518
          Condensed to atoms (all electrons):
               1          2          3          4          5
     1  C    4.385117   0.345444   0.291308   0.390700   0.390700
     2  F    0.345444   8.951712  -0.044055  -0.027625  -0.027625
     3  Cl   0.291308  -0.044055  16.969595  -0.047767  -0.047767
     4  H    0.390700  -0.027625  -0.047767   0.667301  -0.043824
     5  H    0.390700  -0.027625  -0.047767  -0.043824   0.667301
 Mulliken charges:
               1
     1  C    0.196732
     2  F   -0.197850
     3  Cl  -0.121313
     4  H    0.061215
     5  H    0.061215
 Sum of Mulliken charges =   0.00000
 Mulliken charges with hydrogens summed into heavy atoms:
               1
     1  C    0.319163
     2  F   -0.197850
     3  Cl  -0.121313
 Electronic spatial extent (au):  <R**2>=            231.4976
 Charge=              0.0000 electrons
 Dipole moment (field-independent basis, Debye):
    X=             -0.9174    Y=              1.5359    Z=             -0.0000  Tot=              1.7891
 Quadrupole moment (field-independent basis, Debye-Ang):
   XX=            -25.7038   YY=            -22.1458   ZZ=            -23.1292
   XY=             -1.3431   XZ=              0.0000   YZ=             -0.0000
 Traceless Quadrupole moment (field-independent basis, Debye-Ang):
   XX=             -2.0442   YY=              1.5138   ZZ=              0.5304
   XY=             -1.3431   XZ=              0.0000   YZ=             -0.0000
 Octapole moment (field-independent basis, Debye-Ang**2):
  XXX=              6.0666  YYY=              2.9871  ZZZ=              0.0000  XYY=              0.3539
  XXY=             -0.3494  XXZ=              0.0000  XZZ=              2.5380  YZZ=              2.5391
  YYZ=             -0.0000  XYZ=              0.0000
 Hexadecapole moment (field-independent basis, Debye-Ang**3):
 XXXX=           -111.5698 YYYY=           -115.3453 ZZZZ=            -28.2841 XXXY=            -34.4345
 XXXZ=              0.0000 YYYX=            -31.3733 YYYZ=              0.0000 ZZZX=              0.0000
 ZZZY=              0.0000 XXYY=            -37.9409 XXZZ=            -23.1654 YYZZ=            -24.0155
 XXYZ=              0.0000 YYXZ=              0.0000 ZZXY=            -11.7938
 N-N= 1.017385101180D+02 E-N=-1.627363351863D+03  KE= 5.978128413713D+02
 Symmetry A'   KE= 5.434950888442D+02
 Symmetry A"   KE= 5.431775252712D+01
 Orbital energies and kinetic energies (alpha):
                                 1                 2
   1         O              -101.543892        137.120012
   2         O               -24.705675         37.170765
   3         O               -10.324499         15.968180
   4         O                -9.463619         21.589919
   5         O                -7.226072         20.537579
   6         O                -7.216518         20.551670
   7         O                -7.215904         20.552320
   8         O                -1.226571          3.628795
   9         O                -0.868223          2.746039
  10         O                -0.685278          2.290520
  11         O                -0.527863          2.391267
  12         O                -0.524438          1.598417
  13         O                -0.489548          2.482785
  14         O                -0.380445          2.730068
  15         O                -0.376870          2.833360
  16         O                -0.324459          2.436653
  17         O                -0.307569          2.278072
  18         V                 0.028032          1.950272
  19         V                 0.077099          1.255326
  20         V                 0.103650          0.821343
  21         V                 0.111639          2.339569
  22         V                 0.397923          1.561441
  23         V                 0.429073          1.603964
  24         V                 0.460542          2.593800
  25         V                 0.495104          2.822610
  26         V                 0.551860          2.841328
  27         V                 0.559536          2.980151
  28         V                 0.563571          2.578772
  29         V                 0.591975          2.211221
  30         V                 0.683200          2.322732
  31         V                 0.713300          2.129935
  32         V                 0.718308          2.516252
  33         V                 0.738161          2.334280
  34         V                 0.775295          2.248445
  35         V                 0.932566          2.564161
  36         V                 1.058917          3.271948
  37         V                 1.076226          2.111436
  38         V                 1.154814          3.208964
  39         V                 1.244437          3.361129
  40         V                 1.272392          3.756497
  41         V                 1.345147          3.346107
  42         V                 1.553210          2.402417
  43         V                 1.634269          2.858638
  44         V                 1.639877          3.347491
  45         V                 1.672191          3.321890
  46         V                 1.802858          3.079350
  47         V                 1.809322          2.750806
  48         V                 2.009228          2.930376
  49         V                 2.281720          4.857362
  50         V                 2.375277          4.351943
  51         V                 2.426374          4.885751
  52         V                 3.578050          5.770305
  53         V                 3.579214          5.768230
  54         V                 3.778882          6.011032
  55         V                 3.821221          6.033239
  56         V                 4.019957          6.556524
 Total kinetic energy from orbitals= 5.978128413713D+02
 No NMR shielding tensors so no spin-rotation constants.
 Leave Link  601 at Sat Sep 12 17:34:30 2026, MaxMem=  1073741824 cpu:               0.1 elap:               0.1
 (Enter /app1/ia32-64/Gaussian/Rev-C.02/g16/l701.exe)
 ... and contract with generalized density number  0.
 Compute integral first derivatives.
 Leave Link  701 at Sat Sep 12 17:34:30 2026, MaxMem=  1073741824 cpu:               0.0 elap:               0.1
 (Enter /app1/ia32-64/Gaussian/Rev-C.02/g16/l702.exe)
 L702 exits ... SP integral derivatives will be done elsewhere.
 Leave Link  702 at Sat Sep 12 17:34:30 2026, MaxMem=  1073741824 cpu:               0.0 elap:               0.0
 (Enter /app1/ia32-64/Gaussian/Rev-C.02/g16/l703.exe)
 Integral derivatives from FoFJK, PRISM(SPDF).
 Compute integral first derivatives, UseDBF=F ICtDFT=           0.
 Calling FoFJK, ICntrl=      2127 FMM=F ISym2X=1 I1Cent= 0 IOpClX= 0 NMat=1 NMatS=1 NMatT=0.
 FoFJK:  IHMeth= 1 ICntrl=    2127 DoSepK=F KAlg= 0 I1Cent=           0 FoldK=F
 IRaf=         0 NMat=       1 IRICut=       1 DoRegI=T DoRafI=F ISym2E= 1 IDoP0=0 IntGTp=1.
 FoFCou: FMM=F IPFlag=           0 FMFlag=      100000 FMFlg1=         800
         NFxFlg=           0 DoJE=F BraDBF=F KetDBF=F FulRan=T
         wScrn=  0.000000 ICntrl=      2127 IOpCl=  0 I1Cent=           0 NGrid=           0
         NMat0=    1 NMatS0=      1 NMatT0=    0 NMatD0=    1 NMtDS0=    0 NMtDT0=    0
 Petite list used in FoFCou.
 Leave Link  703 at Sat Sep 12 17:34:30 2026, MaxMem=  1073741824 cpu:               0.5 elap:               0.6
 (Enter /app1/ia32-64/Gaussian/Rev-C.02/g16/l716.exe)
 Dipole        =-3.60940020D-01 6.04278960D-01 0.00000000D+00
 ***** Axes restored to original set *****
 -------------------------------------------------------------------
 Center     Atomic                   Forces (Hartrees/Bohr)
 Number     Number              X              Y              Z
 -------------------------------------------------------------------
      1        6          -0.010448351    0.000000000    0.004130519
      2        9          -0.002085926   -0.000000000    0.004659738
      3       17           0.013210568    0.000000000   -0.006943523
      4        1          -0.000338146   -0.008134726   -0.000923367
      5        1          -0.000338146    0.008134726   -0.000923367
 -------------------------------------------------------------------
 Cartesian Forces:  Max     0.013210568 RMS     0.005826986
 Leave Link  716 at Sat Sep 12 17:34:31 2026, MaxMem=  1073741824 cpu:               0.0 elap:               0.0
 (Enter /app1/ia32-64/Gaussian/Rev-C.02/g16/l103.exe)

 GradGradGradGradGradGradGradGradGradGradGradGradGradGradGradGradGradGrad
 Berny optimization.
 FormGI is forming the generalized inverse of G from B-inverse, IUseBI=4.
 Internal  Forces:  Max     0.014788705 RMS     0.005425017
 Search for a local minimum.
 Step number   1 out of a maximum of   24
 All quantities printed in internal units (Hartrees-Bohrs-Radians)
 RMS Force = .54250D-02 SwitMx=.10000D-02 MixMth= 1
 Mixed Optimization -- RFO/linear search
 Second derivative matrix not updated -- first step.
 The second derivative matrix:
                          R1        R2        R3        R4        A1
           R1           0.52948
           R2           0.00000   0.29539
           R3           0.00000   0.00000   0.34813
           R4           0.00000   0.00000   0.00000   0.34813
           A1           0.00000   0.00000   0.00000   0.00000   0.25000
           A2           0.00000   0.00000   0.00000   0.00000   0.00000
           A3           0.00000   0.00000   0.00000   0.00000   0.00000
           A4           0.00000   0.00000   0.00000   0.00000   0.00000
           A5           0.00000   0.00000   0.00000   0.00000   0.00000
           A6           0.00000   0.00000   0.00000   0.00000   0.00000
           D1           0.00000   0.00000   0.00000   0.00000   0.00000
           D2           0.00000   0.00000   0.00000   0.00000   0.00000
           D3           0.00000   0.00000   0.00000   0.00000   0.00000
           D4           0.00000   0.00000   0.00000   0.00000   0.00000
                          A2        A3        A4        A5        A6
           A2           0.16000
           A3           0.00000   0.16000
           A4           0.00000   0.00000   0.16000
           A5           0.00000   0.00000   0.00000   0.16000
           A6           0.00000   0.00000   0.00000   0.00000   0.16000
           D1           0.00000   0.00000   0.00000   0.00000   0.00000
           D2           0.00000   0.00000   0.00000   0.00000   0.00000
           D3           0.00000   0.00000   0.00000   0.00000   0.00000
           D4           0.00000   0.00000   0.00000   0.00000   0.00000
                          D1        D2        D3        D4
           D1           0.00235
           D2           0.00000   0.00235
           D3           0.00000   0.00000   0.00235
           D4           0.00000   0.00000   0.00000   0.00235
 ITU=  0
     Eigenvalues ---    0.05783   0.06822   0.08865   0.16000   0.16807
     Eigenvalues ---    0.29539   0.34813   0.34813   0.52948
 RFO step:  Lambda=-1.49047284D-03 EMin= 5.78280322D-02
 Linear search not attempted -- first point.
 Iteration  1 RMS(Cart)=  0.02209997 RMS(Int)=  0.00025123
 Iteration  2 RMS(Cart)=  0.00021016 RMS(Int)=  0.00008854
 Iteration  3 RMS(Cart)=  0.00000006 RMS(Int)=  0.00008854
 ITry= 1 IFail=0 DXMaxC= 3.96D-02 DCOld= 1.00D+10 DXMaxT= 3.00D-01 DXLimC= 3.00D+00 Rises=F
 ClnCor:  largest displacement from symmetrization is 2.63D-04 for atom     5.
 Variable       Old X    -DE/DX   Delta X   Delta X   Delta X     New X
                                 (Linear)    (Quad)   (Total)
    R1        2.57003   0.00466   0.00000   0.00878   0.00878   2.57880
    R2        3.32592   0.01479   0.00000   0.04981   0.04981   3.37573
    R3        2.05980   0.00709   0.00000   0.02029   0.02031   2.08011
    R4        2.05980   0.00709   0.00000   0.02029   0.02031   2.08011
    A1        1.91986   0.00268   0.00000   0.01513   0.01498   1.93484
    A2        1.91986  -0.00214   0.00000  -0.00974  -0.00976   1.91010
    A3        1.91986  -0.00194   0.00000  -0.00965  -0.00976   1.91010
    A4        1.90131  -0.00235   0.00000  -0.01710  -0.01697   1.88434
    A5        1.90131  -0.00269   0.00000  -0.01723  -0.01697   1.88434
    A6        1.90131   0.00646   0.00000   0.03867   0.03877   1.94008
    D1       -2.10561  -0.00051   0.00000  -0.00190  -0.00199  -2.10759
    D2        2.10561   0.00042   0.00000   0.00188   0.00199   2.10759
    D3       -2.10561  -0.00023   0.00000  -0.00632  -0.00630  -2.11190
    D4        2.07197  -0.00064   0.00000  -0.00820  -0.00828   2.06369
         Item               Value     Threshold  Converged?
 Maximum Force            0.014789     0.000015     NO 
 RMS     Force            0.005425     0.000010     NO 
 Maximum Displacement     0.039642     0.000060     NO 
 RMS     Displacement     0.022137     0.000040     NO 
 Predicted change in Energy=-7.501462D-04
 Lowest energy point so far.  Saving SCF results.
 GradGradGradGradGradGradGradGradGradGradGradGradGradGradGradGradGradGrad

 Leave Link  103 at Sat Sep 12 17:34:31 2026, MaxMem=  1073741824 cpu:               0.0 elap:               0.0
 (Enter /app1/ia32-64/Gaussian/Rev-C.02/g16/l202.exe)
                          Input orientation:                          
 ---------------------------------------------------------------------
 Center     Atomic      Atomic             Coordinates (Angstroms)
 Number     Number       Type             X           Y           Z
 ---------------------------------------------------------------------
      1          6           0       -0.006795    0.000000    0.002299
      2          9           0       -0.017453    0.000000    1.366902
      3         17           0        1.667409    0.000000   -0.620696
      4          1           0       -0.506835   -0.908017   -0.367985
      5          1           0       -0.506835    0.908017   -0.367985
 ---------------------------------------------------------------------
                    Distance matrix (angstroms):
                    1          2          3          4          5
     1  C    0.000000
     2  F    1.364644   0.000000
     3  Cl   1.786360   2.605629   0.000000
     4  H    1.100748   2.018371   2.369746   0.000000
     5  H    1.100748   2.018371   2.369746   1.816034   0.000000
 Stoichiometry    CH2ClF
 Framework group  CS[SG(CClF),X(H2)]
 Deg. of freedom     6
 Full point group                 CS      NOp   2
 RotChk:  IX=0 Diff= 1.67D-02
 Largest Abelian subgroup         CS      NOp   2
 Largest concise Abelian subgroup CS      NOp   2
                         Standard orientation:                         
 ---------------------------------------------------------------------
 Center     Atomic      Atomic             Coordinates (Angstroms)
 Number     Number       Type             X           Y           Z
 ---------------------------------------------------------------------
      1          6           0        0.000000    0.805352    0.000000
      2          9           0        1.364151    0.768662    0.000000
      3         17           0       -0.680702   -0.846232    0.000000
      4          1           0       -0.352714    1.317936    0.908017
      5          1           0       -0.352714    1.317936   -0.908017
 ---------------------------------------------------------------------
 Rotational constants (GHZ):          42.0021370           5.5832689           5.0932566
 Leave Link  202 at Sat Sep 12 17:34:31 2026, MaxMem=  1073741824 cpu:               0.0 elap:               0.0
 (Enter /app1/ia32-64/Gaussian/Rev-C.02/g16/l301.exe)
 Standard basis: CC-pVDZ (5D, 7F)
 Ernie: Thresh=  0.10000D-02 Tol=  0.10000D-05 Strict=F.
 Ernie:  14 primitive shells out of 104 were deleted.
 There are    41 symmetry adapted cartesian basis functions of A'  symmetry.
 There are    18 symmetry adapted cartesian basis functions of A"  symmetry.
 There are    38 symmetry adapted basis functions of A'  symmetry.
 There are    18 symmetry adapted basis functions of A"  symmetry.
    56 basis functions,   151 primitive gaussians,    59 cartesian basis functions
    17 alpha electrons       17 beta electrons
       nuclear repulsion energy       100.6003332088 Hartrees.
 IExCor=  402 DFT=T Ex+Corr=B3LYP ExCW=0 ScaHFX=  0.200000
 ScaDFX=  0.800000  0.720000  1.000000  0.810000 ScalE2=  1.000000  1.000000
 IRadAn=      5 IRanWt=     -1 IRanGd=            0 ICorTp=0 IEmpDi=  4
 NAtoms=    5 NActive=    5 NUniq=    4 SFac= 1.56D+00 NAtFMM=   60 NAOKFM=F Big=F
 Integral buffers will be    131072 words long.
 Raffenetti 2 integral format.
 Two-electron integral symmetry is turned on.
 Leave Link  301 at Sat Sep 12 17:34:31 2026, MaxMem=  1073741824 cpu:               0.0 elap:               0.0
 (Enter /app1/ia32-64/Gaussian/Rev-C.02/g16/l302.exe)
 NPDir=0 NMtPBC=     1 NCelOv=     1 NCel=       1 NClECP=     1 NCelD=      1
         NCelK=      1 NCelE2=     1 NClLst=     1 CellRange=     0.0.
 One-electron integrals computed using PRISM.
 One-electron integral symmetry used in STVInt
 NBasis=    56 RedAO= T EigKep=  1.52D-02  NBF=    38    18
 NBsUse=    56 1.00D-06 EigRej= -1.00D+00 NBFU=    38    18
 Precomputing XC quadrature grid using
 IXCGrd= 4 IRadAn=           5 IRanWt=          -1 IRanGd=           0 AccXCQ= 0.00D+00.
 Generated NRdTot=       0 NPtTot=           0 NUsed=           0 NTot=          32
 NSgBfM=    59    59    59    59    59 MxSgAt=     5 MxSgA2=     5.
 Leave Link  302 at Sat Sep 12 17:34:31 2026, MaxMem=  1073741824 cpu:               0.1 elap:               0.1
 (Enter /app1/ia32-64/Gaussian/Rev-C.02/g16/l303.exe)
 DipDrv:  MaxL=1.
 Leave Link  303 at Sat Sep 12 17:34:31 2026, MaxMem=  1073741824 cpu:               0.0 elap:               0.0
 (Enter /app1/ia32-64/Gaussian/Rev-C.02/g16/l401.exe)
 Initial guess from the checkpoint file:  "ch2fcl_b3lyp_ccpvdz.chk"
 B after Tr=    -0.000000   -0.000000    0.000000
         Rot=    0.999982    0.000000    0.000000   -0.006029 Ang=  -0.69 deg.
 Guess basis will be translated and rotated to current coordinates.
 JPrj=2 DoOrth=T DoCkMO=T.
 Initial guess orbital symmetries:
       Occupied  (A') (A') (A') (A') (A') (A') (A") (A') (A') (A')
                 (A') (A") (A') (A") (A') (A') (A")
       Virtual   (A') (A') (A") (A') (A') (A") (A') (A') (A") (A')
                 (A') (A") (A') (A") (A') (A') (A") (A') (A') (A")
                 (A') (A') (A") (A') (A") (A") (A') (A') (A') (A")
                 (A') (A') (A") (A') (A") (A') (A') (A") (A')
 The electronic state of the initial guess is 1-A'.
 Generating alternative initial guess.
 ExpMin= 1.22D-01 ExpMax= 1.28D+05 ExpMxC= 1.24D+03 IAcc=3 IRadAn=         5 AccDes= 0.00D+00
 Harris functional with IExCor=  402 and IRadAn=       5 diagonalized for initial guess.
 HarFok:  IExCor=  402 AccDes= 0.00D+00 IRadAn=         5 IDoV= 1 UseB2=F ITyADJ=14
 ICtDFT=  3500011 ScaDFX=  1.000000  1.000000  1.000000  1.000000
 FoFCou: FMM=F IPFlag=           0 FMFlag=      100000 FMFlg1=           0
         NFxFlg=           0 DoJE=T BraDBF=F KetDBF=T FulRan=T
         wScrn=  0.000000 ICntrl=       500 IOpCl=  0 I1Cent=   200000004 NGrid=           0
         NMat0=    1 NMatS0=      1 NMatT0=    0 NMatD0=    1 NMtDS0=    0 NMtDT0=    0
 Petite list used in FoFCou.
 Harris En= -599.271999336703    
 Leave Link  401 at Sat Sep 12 17:34:31 2026, MaxMem=  1073741824 cpu:               0.2 elap:               0.2
 (Enter /app1/ia32-64/Gaussian/Rev-C.02/g16/l502.exe)
 Keep R1 ints in memory in symmetry-blocked form, NReq=2160176.
 FoFCou: FMM=F IPFlag=           0 FMFlag=           0 FMFlg1=           0
         NFxFlg=           0 DoJE=F BraDBF=F KetDBF=F FulRan=T
         wScrn=  0.000000 ICntrl=       600 IOpCl=  0 I1Cent=           0 NGrid=           0
         NMat0=    1 NMatS0=   1596 NMatT0=    0 NMatD0=    1 NMtDS0=    0 NMtDT0=    0
 Petite list used in FoFCou.
 Closed shell SCF:
 Using DIIS extrapolation, IDIIS=  1040.
 NGot=  1073741824 LenX=  1073079033 LenY=  1073075111
 Requested convergence on RMS density matrix=1.00D-08 within 128 cycles.
 Requested convergence on MAX density matrix=1.00D-06.
 Requested convergence on             energy=1.00D-06.
 No special actions if energy rises.
 Integral accuracy reduced to 1.0D-05 until final iterations.

 Cycle   1  Pass 0  IDiag  1:
 E= -599.361655592753    
 DIIS: error= 1.18D-03 at cycle   1 NSaved=   1.
 NSaved= 1 IEnMin= 1 EnMin= -599.361655592753     IErMin= 1 ErrMin= 1.18D-03
 ErrMax= 1.18D-03  0.00D+00 EMaxC= 1.00D-01 BMatC= 1.59D-04 BMatP= 1.59D-04
 IDIUse=3 WtCom= 9.88D-01 WtEn= 1.18D-02
 Coeff-Com:  0.100D+01
 Coeff-En:   0.100D+01
 Coeff:      0.100D+01
 Gap=     0.331 Goal=   None    Shift=    0.000
 GapD=    0.331 DampG=1.000 DampE=1.000 DampFc=1.0000 IDamp=-1.
 RMSDP=4.40D-04 MaxDP=5.63D-03              OVMax= 8.09D-03

 Cycle   2  Pass 0  IDiag  1:
 E= -599.361904011436     Delta-E=       -0.000248418683 Rises=F Damp=F
 DIIS: error= 9.14D-04 at cycle   2 NSaved=   2.
 NSaved= 2 IEnMin= 2 EnMin= -599.361904011436     IErMin= 2 ErrMin= 9.14D-04
 ErrMax= 9.14D-04  0.00D+00 EMaxC= 1.00D-01 BMatC= 3.71D-05 BMatP= 1.59D-04
 IDIUse=3 WtCom= 9.91D-01 WtEn= 9.14D-03
 Coeff-Com:  0.238D+00 0.762D+00
 Coeff-En:   0.000D+00 0.100D+01
 Coeff:      0.236D+00 0.764D+00
 Gap=     0.328 Goal=   None    Shift=    0.000
 RMSDP=1.62D-04 MaxDP=2.43D-03 DE=-2.48D-04 OVMax= 3.46D-03

 Cycle   3  Pass 0  IDiag  1:
 E= -599.361914653333     Delta-E=       -0.000010641898 Rises=F Damp=F
 DIIS: error= 7.64D-04 at cycle   3 NSaved=   3.
 NSaved= 3 IEnMin= 3 EnMin= -599.361914653333     IErMin= 3 ErrMin= 7.64D-04
 ErrMax= 7.64D-04  0.00D+00 EMaxC= 1.00D-01 BMatC= 2.98D-05 BMatP= 3.71D-05
 IDIUse=3 WtCom= 9.92D-01 WtEn= 7.64D-03
 Coeff-Com: -0.217D-01 0.475D+00 0.547D+00
 Coeff-En:   0.000D+00 0.430D+00 0.570D+00
 Coeff:     -0.215D-01 0.475D+00 0.547D+00
 Gap=     0.328 Goal=   None    Shift=    0.000
 RMSDP=7.37D-05 MaxDP=1.30D-03 DE=-1.06D-05 OVMax= 1.45D-03

 Cycle   4  Pass 0  IDiag  1:
 E= -599.361942997525     Delta-E=       -0.000028344191 Rises=F Damp=F
 DIIS: error= 4.80D-05 at cycle   4 NSaved=   4.
 NSaved= 4 IEnMin= 4 EnMin= -599.361942997525     IErMin= 4 ErrMin= 4.80D-05
 ErrMax= 4.80D-05  0.00D+00 EMaxC= 1.00D-01 BMatC= 3.09D-07 BMatP= 2.98D-05
 IDIUse=1 WtCom= 1.00D+00 WtEn= 0.00D+00
 Coeff-Com: -0.137D-01 0.184D+00 0.220D+00 0.610D+00
 Coeff:     -0.137D-01 0.184D+00 0.220D+00 0.610D+00
 Gap=     0.328 Goal=   None    Shift=    0.000
 RMSDP=9.28D-06 MaxDP=1.43D-04 DE=-2.83D-05 OVMax= 1.33D-04

 Initial convergence to 1.0D-05 achieved.  Increase integral accuracy.
 Cycle   5  Pass 1  IDiag  1:
 E= -599.361926533915     Delta-E=        0.000016463610 Rises=F Damp=F
 DIIS: error= 2.14D-05 at cycle   1 NSaved=   1.
 NSaved= 1 IEnMin= 1 EnMin= -599.361926533915     IErMin= 1 ErrMin= 2.14D-05
 ErrMax= 2.14D-05  0.00D+00 EMaxC= 1.00D-01 BMatC= 4.91D-08 BMatP= 4.91D-08
 IDIUse=1 WtCom= 1.00D+00 WtEn= 0.00D+00
 Coeff-Com:  0.100D+01
 Coeff:      0.100D+01
 Gap=     0.328 Goal=   None    Shift=    0.000
 RMSDP=9.28D-06 MaxDP=1.43D-04 DE= 1.65D-05 OVMax= 9.53D-05

 Cycle   6  Pass 1  IDiag  1:
 E= -599.361926502781     Delta-E=        0.000000031134 Rises=F Damp=F
 DIIS: error= 3.28D-05 at cycle   2 NSaved=   2.
 NSaved= 2 IEnMin= 1 EnMin= -599.361926533915     IErMin= 1 ErrMin= 2.14D-05
 ErrMax= 3.28D-05  0.00D+00 EMaxC= 1.00D-01 BMatC= 1.02D-07 BMatP= 4.91D-08
 IDIUse=1 WtCom= 1.00D+00 WtEn= 0.00D+00
 Coeff-Com:  0.592D+00 0.408D+00
 Coeff:      0.592D+00 0.408D+00
 Gap=     0.328 Goal=   None    Shift=    0.000
 RMSDP=3.75D-06 MaxDP=6.06D-05 DE= 3.11D-08 OVMax= 6.58D-05

 Cycle   7  Pass 1  IDiag  1:
 E= -599.361926569220     Delta-E=       -0.000000066439 Rises=F Damp=F
 DIIS: error= 1.60D-06 at cycle   3 NSaved=   3.
 NSaved= 3 IEnMin= 3 EnMin= -599.361926569220     IErMin= 3 ErrMin= 1.60D-06
 ErrMax= 1.60D-06  0.00D+00 EMaxC= 1.00D-01 BMatC= 1.98D-10 BMatP= 4.91D-08
 IDIUse=1 WtCom= 1.00D+00 WtEn= 0.00D+00
 Coeff-Com:  0.122D+00 0.966D-01 0.782D+00
 Coeff:      0.122D+00 0.966D-01 0.782D+00
 Gap=     0.328 Goal=   None    Shift=    0.000
 RMSDP=2.89D-07 MaxDP=4.46D-06 DE=-6.64D-08 OVMax= 5.20D-06

 Cycle   8  Pass 1  IDiag  1:
 E= -599.361926569309     Delta-E=       -0.000000000089 Rises=F Damp=F
 DIIS: error= 1.41D-06 at cycle   4 NSaved=   4.
 NSaved= 4 IEnMin= 4 EnMin= -599.361926569309     IErMin= 4 ErrMin= 1.41D-06
 ErrMax= 1.41D-06  0.00D+00 EMaxC= 1.00D-01 BMatC= 9.26D-11 BMatP= 1.98D-10
 IDIUse=1 WtCom= 1.00D+00 WtEn= 0.00D+00
 Coeff-Com: -0.950D-02-0.447D-03 0.418D+00 0.592D+00
 Coeff:     -0.950D-02-0.447D-03 0.418D+00 0.592D+00
 Gap=     0.328 Goal=   None    Shift=    0.000
 RMSDP=1.62D-07 MaxDP=2.38D-06 DE=-8.87D-11 OVMax= 3.33D-06

 Cycle   9  Pass 1  IDiag  1:
 E= -599.361926569399     Delta-E=       -0.000000000090 Rises=F Damp=F
 DIIS: error= 2.11D-07 at cycle   5 NSaved=   5.
 NSaved= 5 IEnMin= 5 EnMin= -599.361926569399     IErMin= 5 ErrMin= 2.11D-07
 ErrMax= 2.11D-07  0.00D+00 EMaxC= 1.00D-01 BMatC= 4.30D-12 BMatP= 9.26D-11
 IDIUse=1 WtCom= 1.00D+00 WtEn= 0.00D+00
 Coeff-Com: -0.816D-02-0.372D-02 0.132D+00 0.269D+00 0.611D+00
 Coeff:     -0.816D-02-0.372D-02 0.132D+00 0.269D+00 0.611D+00
 Gap=     0.328 Goal=   None    Shift=    0.000
 RMSDP=4.34D-08 MaxDP=8.20D-07 DE=-9.05D-11 OVMax= 8.40D-07

 Cycle  10  Pass 1  IDiag  1:
 E= -599.361926569401     Delta-E=       -0.000000000002 Rises=F Damp=F
 DIIS: error= 3.86D-08 at cycle   6 NSaved=   6.
 NSaved= 6 IEnMin= 6 EnMin= -599.361926569401     IErMin= 6 ErrMin= 3.86D-08
 ErrMax= 3.86D-08  0.00D+00 EMaxC= 1.00D-01 BMatC= 1.22D-13 BMatP= 4.30D-12
 IDIUse=1 WtCom= 1.00D+00 WtEn= 0.00D+00
 Coeff-Com: -0.245D-02-0.134D-02 0.164D-01 0.583D-01 0.205D+00 0.725D+00
 Coeff:     -0.245D-02-0.134D-02 0.164D-01 0.583D-01 0.205D+00 0.725D+00
 Gap=     0.328 Goal=   None    Shift=    0.000
 RMSDP=7.71D-09 MaxDP=1.60D-07 DE=-1.82D-12 OVMax= 1.22D-07

 SCF Done:  E(RB3LYP) =  -599.361926569     A.U. after   10 cycles
            NFock= 10  Conv=0.77D-08     -V/T= 2.0027
 KE= 5.977326897070D+02 PE=-1.625038302451D+03 EE= 3.273433529660D+02
 Leave Link  502 at Sat Sep 12 17:34:33 2026, MaxMem=  1073741824 cpu:               1.2 elap:               1.3
 (Enter /app1/ia32-64/Gaussian/Rev-C.02/g16/l701.exe)
 ... and contract with generalized density number  0.
 Compute integral first derivatives.
 Leave Link  701 at Sat Sep 12 17:34:33 2026, MaxMem=  1073741824 cpu:               0.1 elap:               0.1
 (Enter /app1/ia32-64/Gaussian/Rev-C.02/g16/l702.exe)
 L702 exits ... SP integral derivatives will be done elsewhere.
 Leave Link  702 at Sat Sep 12 17:34:33 2026, MaxMem=  1073741824 cpu:               0.0 elap:               0.0
 (Enter /app1/ia32-64/Gaussian/Rev-C.02/g16/l703.exe)
 Integral derivatives from FoFJK, PRISM(SPDF).
 Compute integral first derivatives, UseDBF=F ICtDFT=           0.
 Calling FoFJK, ICntrl=      2127 FMM=F ISym2X=1 I1Cent= 0 IOpClX= 0 NMat=1 NMatS=1 NMatT=0.
 FoFJK:  IHMeth= 1 ICntrl=    2127 DoSepK=F KAlg= 0 I1Cent=           0 FoldK=F
 IRaf=         0 NMat=       1 IRICut=       1 DoRegI=T DoRafI=F ISym2E= 1 IDoP0=0 IntGTp=1.
 FoFCou: FMM=F IPFlag=           0 FMFlag=      100000 FMFlg1=         800
         NFxFlg=           0 DoJE=F BraDBF=F KetDBF=F FulRan=T
         wScrn=  0.000000 ICntrl=      2127 IOpCl=  0 I1Cent=           0 NGrid=           0
         NMat0=    1 NMatS0=      1 NMatT0=    0 NMatD0=    1 NMtDS0=    0 NMtDT0=    0
 Petite list used in FoFCou.
 Leave Link  703 at Sat Sep 12 17:34:33 2026, MaxMem=  1073741824 cpu:               0.6 elap:               0.6
 (Enter /app1/ia32-64/Gaussian/Rev-C.02/g16/l716.exe)
 Dipole        =-3.53758116D-01 6.18521043D-01 4.44089210D-16
 ***** Axes restored to original set *****
 -------------------------------------------------------------------
 Center     Atomic                   Forces (Hartrees/Bohr)
 Number     Number              X              Y              Z
 -------------------------------------------------------------------
      1        6          -0.008157797   -0.000000000    0.001821467
      2        9           0.000696717    0.000000000   -0.000883935
      3       17           0.003895478    0.000000000   -0.001507508
      4        1           0.001782801    0.000051483    0.000284988
      5        1           0.001782801   -0.000051483    0.000284988
 -------------------------------------------------------------------
 Cartesian Forces:  Max     0.008157797 RMS     0.002518015
 Leave Link  716 at Sat Sep 12 17:34:33 2026, MaxMem=  1073741824 cpu:               0.0 elap:               0.0
 (Enter /app1/ia32-64/Gaussian/Rev-C.02/g16/l103.exe)

 GradGradGradGradGradGradGradGradGradGradGradGradGradGradGradGradGradGrad
 Berny optimization.
 Using GEDIIS/GDIIS optimizer.
 FormGI is forming the generalized inverse of G from B-inverse, IUseBI=4.
 Internal  Forces:  Max     0.004176671 RMS     0.001377796
 Search for a local minimum.
 Step number   2 out of a maximum of   24
 All quantities printed in internal units (Hartrees-Bohrs-Radians)
 RMS Force = .13778D-02 SwitMx=.10000D-02 MixMth= 1
 Mixed Optimization -- RFO/linear search
 Update second derivatives using D2CorX and points    1    2
 DE= -8.69D-04 DEPred=-7.50D-04 R= 1.16D+00
 TightC=F SS=  1.41D+00  RLast= 7.74D-02 DXNew= 5.0454D-01 2.3225D-01
 Trust test= 1.16D+00 RLast= 7.74D-02 DXMaxT set to 3.00D-01
 The second derivative matrix:
                          R1        R2        R3        R4        A1
           R1           0.54012
           R2           0.00207   0.24142
           R3           0.01438  -0.00034   0.36736
           R4           0.01438  -0.00034   0.01924   0.36736
           A1           0.00042  -0.01393  -0.00023  -0.00023   0.24640
           A2          -0.00339  -0.00033  -0.00456  -0.00456  -0.00005
           A3          -0.00461  -0.00268  -0.00633  -0.00633  -0.00064
           A4           0.00101   0.01262   0.00208   0.00208   0.00324
           A5           0.00078   0.01217   0.00174   0.00174   0.00313
           A6           0.00154  -0.02148   0.00083   0.00083  -0.00555
           D1          -0.00504  -0.00963  -0.00731  -0.00731  -0.00243
           D2           0.00417   0.00796   0.00605   0.00605   0.00201
           D3           0.00307   0.00593   0.00446   0.00446   0.00150
           D4          -0.00110  -0.00203  -0.00159  -0.00159  -0.00051
                          A2        A3        A4        A5        A6
           A2           0.16108
           A3           0.00148   0.16194
           A4          -0.00039  -0.00003   0.15726
           A5          -0.00032   0.00006  -0.00267   0.15740
           A6          -0.00036  -0.00138   0.00512   0.00493   0.15150
           D1           0.00166   0.00190   0.00150   0.00154  -0.00419
           D2          -0.00137  -0.00157  -0.00124  -0.00128   0.00347
           D3          -0.00101  -0.00116  -0.00093  -0.00096   0.00258
           D4           0.00036   0.00042   0.00031   0.00032  -0.00088
                          D1        D2        D3        D4
           D1           0.00336
           D2          -0.00084   0.00304
           D3          -0.00061   0.00050   0.00271
           D4           0.00023  -0.00019  -0.00014   0.00240
 ITU=  1  0
 Use linear search instead of GDIIS.
     Eigenvalues ---    0.05418   0.06891   0.09087   0.14966   0.16115
     Eigenvalues ---    0.24940   0.34813   0.38469   0.54301
 RFO step:  Lambda=-1.29885131D-04 EMin= 5.41755665D-02
 Quartic linear search produced a step of  0.23646.
 Iteration  1 RMS(Cart)=  0.00746496 RMS(Int)=  0.00013361
 Iteration  2 RMS(Cart)=  0.00007806 RMS(Int)=  0.00009490
 Iteration  3 RMS(Cart)=  0.00000001 RMS(Int)=  0.00009490
 ITry= 1 IFail=0 DXMaxC= 1.67D-02 DCOld= 1.00D+10 DXMaxT= 3.00D-01 DXLimC= 3.00D+00 Rises=F
 ClnCor:  largest displacement from symmetrization is 1.61D-04 for atom     5.
 Variable       Old X    -DE/DX   Delta X   Delta X   Delta X     New X
                                 (Linear)    (Quad)   (Total)
    R1        2.57880  -0.00089   0.00208  -0.00336  -0.00129   2.57751
    R2        3.37573   0.00418   0.01178   0.01036   0.02214   3.39787
    R3        2.08011  -0.00095   0.00480  -0.00629  -0.00152   2.07859
    R4        2.08011  -0.00095   0.00480  -0.00629  -0.00152   2.07859
    A1        1.93484   0.00000   0.00354  -0.00782  -0.00432   1.93053
    A2        1.91010  -0.00032  -0.00231   0.00568   0.00321   1.91331
    A3        1.91010   0.00015  -0.00231   0.00576   0.00321   1.91331
    A4        1.88434  -0.00069  -0.00401  -0.00834  -0.01220   1.87214
    A5        1.88434  -0.00099  -0.00401  -0.00829  -0.01220   1.87214
    A6        1.94008   0.00184   0.00917   0.01262   0.02177   1.96185
    D1       -2.10759   0.00060  -0.00047   0.01117   0.01066  -2.09693
    D2        2.10759  -0.00051   0.00047  -0.01110  -0.01066   2.09693
    D3       -2.11190  -0.00089  -0.00149  -0.01906  -0.02068  -2.13258
    D4        2.06369  -0.00039  -0.00196  -0.00797  -0.01002   2.05367
         Item               Value     Threshold  Converged?
 Maximum Force            0.004177     0.000015     NO 
 RMS     Force            0.001378     0.000010     NO 
 Maximum Displacement     0.016664     0.000060     NO 
 RMS     Displacement     0.007454     0.000040     NO 
 Predicted change in Energy=-9.240747D-05
 Lowest energy point so far.  Saving SCF results.
 GradGradGradGradGradGradGradGradGradGradGradGradGradGradGradGradGradGrad

 Leave Link  103 at Sat Sep 12 17:34:34 2026, MaxMem=  1073741824 cpu:               0.0 elap:               0.0
 (Enter /app1/ia32-64/Gaussian/Rev-C.02/g16/l202.exe)
                          Input orientation:                          
 ---------------------------------------------------------------------
 Center     Atomic      Atomic             Coordinates (Angstroms)
 Number     Number       Type             X           Y           Z
 ---------------------------------------------------------------------
      1          6           0       -0.015613    0.000000    0.003695
      2          9           0       -0.019473    0.000000    1.367651
      3         17           0        1.669157    0.000000   -0.624504
      4          1           0       -0.502297   -0.914067   -0.367112
      5          1           0       -0.502297    0.914067   -0.367112
 ---------------------------------------------------------------------
                    Distance matrix (angstroms):
                    1          2          3          4          5
     1  C    0.000000
     2  F    1.363962   0.000000
     3  Cl   1.798077   2.611542   0.000000
     4  H    1.099945   2.019416   2.370017   0.000000
     5  H    1.099945   2.019416   2.370017   1.828135   0.000000
 Stoichiometry    CH2ClF
 Framework group  CS[SG(CClF),X(H2)]
 Deg. of freedom     6
 Full point group                 CS      NOp   2
 RotChk:  IX=0 Diff= 5.35D-03
 Largest Abelian subgroup         CS      NOp   2
 Largest concise Abelian subgroup CS      NOp   2
                         Standard orientation:                         
 ---------------------------------------------------------------------
 Center     Atomic      Atomic             Coordinates (Angstroms)
 Number     Number       Type             X           Y           Z
 ---------------------------------------------------------------------
      1          6           0       -0.000000    0.813123    0.000000
      2          9           0        1.363424    0.774818    0.000000
      3         17           0       -0.679979   -0.851422    0.000000
      4          1           0       -0.355585    1.311037    0.914067
      5          1           0       -0.355585    1.311037   -0.914067
 ---------------------------------------------------------------------
 Rotational constants (GHZ):          41.7954550           5.5513222           5.0658932
 Leave Link  202 at Sat Sep 12 17:34:34 2026, MaxMem=  1073741824 cpu:               0.0 elap:               0.1
 (Enter /app1/ia32-64/Gaussian/Rev-C.02/g16/l301.exe)
 Standard basis: CC-pVDZ (5D, 7F)
 Ernie: Thresh=  0.10000D-02 Tol=  0.10000D-05 Strict=F.
 Ernie:  14 primitive shells out of 104 were deleted.
 There are    41 symmetry adapted cartesian basis functions of A'  symmetry.
 There are    18 symmetry adapted cartesian basis functions of A"  symmetry.
 There are    38 symmetry adapted basis functions of A'  symmetry.
 There are    18 symmetry adapted basis functions of A"  symmetry.
    56 basis functions,   151 primitive gaussians,    59 cartesian basis functions
    17 alpha electrons       17 beta electrons
       nuclear repulsion energy       100.3425298686 Hartrees.
 IExCor=  402 DFT=T Ex+Corr=B3LYP ExCW=0 ScaHFX=  0.200000
 ScaDFX=  0.800000  0.720000  1.000000  0.810000 ScalE2=  1.000000  1.000000
 IRadAn=      5 IRanWt=     -1 IRanGd=            0 ICorTp=0 IEmpDi=  4
 NAtoms=    5 NActive=    5 NUniq=    4 SFac= 1.56D+00 NAtFMM=   60 NAOKFM=F Big=F
 Integral buffers will be    131072 words long.
 Raffenetti 2 integral format.
 Two-electron integral symmetry is turned on.
 Leave Link  301 at Sat Sep 12 17:34:34 2026, MaxMem=  1073741824 cpu:               0.0 elap:               0.0
 (Enter /app1/ia32-64/Gaussian/Rev-C.02/g16/l302.exe)
 NPDir=0 NMtPBC=     1 NCelOv=     1 NCel=       1 NClECP=     1 NCelD=      1
         NCelK=      1 NCelE2=     1 NClLst=     1 CellRange=     0.0.
 One-electron integrals computed using PRISM.
 One-electron integral symmetry used in STVInt
 NBasis=    56 RedAO= T EigKep=  1.54D-02  NBF=    38    18
 NBsUse=    56 1.00D-06 EigRej= -1.00D+00 NBFU=    38    18
 Precomputing XC quadrature grid using
 IXCGrd= 4 IRadAn=           5 IRanWt=          -1 IRanGd=           0 AccXCQ= 0.00D+00.
 Generated NRdTot=       0 NPtTot=           0 NUsed=           0 NTot=          32
 NSgBfM=    59    59    59    59    59 MxSgAt=     5 MxSgA2=     5.
 Leave Link  302 at Sat Sep 12 17:34:34 2026, MaxMem=  1073741824 cpu:               0.1 elap:               0.1
 (Enter /app1/ia32-64/Gaussian/Rev-C.02/g16/l303.exe)
 DipDrv:  MaxL=1.
 Leave Link  303 at Sat Sep 12 17:34:34 2026, MaxMem=  1073741824 cpu:               0.0 elap:               0.0
 (Enter /app1/ia32-64/Gaussian/Rev-C.02/g16/l401.exe)
 Initial guess from the checkpoint file:  "ch2fcl_b3lyp_ccpvdz.chk"
 B after Tr=     0.000000    0.000000    0.000000
         Rot=    0.999999   -0.000000   -0.000000   -0.001640 Ang=  -0.19 deg.
 Guess basis will be translated and rotated to current coordinates.
 JPrj=2 DoOrth=T DoCkMO=T.
 Initial guess orbital symmetries:
       Occupied  (A') (A') (A') (A') (A') (A') (A") (A') (A') (A')
                 (A') (A") (A') (A") (A') (A') (A")
       Virtual   (A') (A') (A") (A') (A') (A") (A') (A') (A") (A')
                 (A') (A") (A') (A") (A') (A') (A") (A') (A') (A")
                 (A') (A') (A") (A') (A") (A") (A') (A') (A') (A")
                 (A') (A') (A") (A') (A") (A') (A') (A") (A')
 The electronic state of the initial guess is 1-A'.
 Leave Link  401 at Sat Sep 12 17:34:34 2026, MaxMem=  1073741824 cpu:               0.1 elap:               0.1
 (Enter /app1/ia32-64/Gaussian/Rev-C.02/g16/l502.exe)
 Keep R1 ints in memory in symmetry-blocked form, NReq=2160176.
 FoFCou: FMM=F IPFlag=           0 FMFlag=           0 FMFlg1=           0
         NFxFlg=           0 DoJE=F BraDBF=F KetDBF=F FulRan=T
         wScrn=  0.000000 ICntrl=       600 IOpCl=  0 I1Cent=           0 NGrid=           0
         NMat0=    1 NMatS0=   1596 NMatT0=    0 NMatD0=    1 NMtDS0=    0 NMtDT0=    0
 Petite list used in FoFCou.
 Closed shell SCF:
 Using DIIS extrapolation, IDIIS=  1040.
 NGot=  1073741824 LenX=  1073079033 LenY=  1073075111
 Requested convergence on RMS density matrix=1.00D-08 within 128 cycles.
 Requested convergence on MAX density matrix=1.00D-06.
 Requested convergence on             energy=1.00D-06.
 No special actions if energy rises.

 Cycle   1  Pass 1  IDiag  1:
 E= -599.361978684754    
 DIIS: error= 7.22D-04 at cycle   1 NSaved=   1.
 NSaved= 1 IEnMin= 1 EnMin= -599.361978684754     IErMin= 1 ErrMin= 7.22D-04
 ErrMax= 7.22D-04  0.00D+00 EMaxC= 1.00D-01 BMatC= 3.15D-05 BMatP= 3.15D-05
 IDIUse=3 WtCom= 9.93D-01 WtEn= 7.22D-03
 Coeff-Com:  0.100D+01
 Coeff-En:   0.100D+01
 Coeff:      0.100D+01
 Gap=     0.326 Goal=   None    Shift=    0.000
 RMSDP=1.85D-04 MaxDP=1.97D-03              OVMax= 3.42D-03

 Cycle   2  Pass 1  IDiag  1:
 E= -599.362036742987     Delta-E=       -0.000058058232 Rises=F Damp=F
 DIIS: error= 1.92D-04 at cycle   2 NSaved=   2.
 NSaved= 2 IEnMin= 2 EnMin= -599.362036742987     IErMin= 2 ErrMin= 1.92D-04
 ErrMax= 1.92D-04  0.00D+00 EMaxC= 1.00D-01 BMatC= 2.44D-06 BMatP= 3.15D-05
 IDIUse=3 WtCom= 9.98D-01 WtEn= 1.92D-03
 Coeff-Com:  0.606D-01 0.939D+00
 Coeff-En:   0.000D+00 0.100D+01
 Coeff:      0.605D-01 0.939D+00
 Gap=     0.325 Goal=   None    Shift=    0.000
 RMSDP=4.94D-05 MaxDP=6.82D-04 DE=-5.81D-05 OVMax= 1.03D-03

 Cycle   3  Pass 1  IDiag  1:
 E= -599.362035737162     Delta-E=        0.000001005825 Rises=F Damp=F
 DIIS: error= 2.53D-04 at cycle   3 NSaved=   3.
 NSaved= 3 IEnMin= 2 EnMin= -599.362036742987     IErMin= 2 ErrMin= 1.92D-04
 ErrMax= 2.53D-04  0.00D+00 EMaxC= 1.00D-01 BMatC= 3.93D-06 BMatP= 2.44D-06
 IDIUse=3 WtCom= 3.86D-01 WtEn= 6.14D-01
 Coeff-Com: -0.366D-01 0.577D+00 0.459D+00
 Coeff-En:   0.000D+00 0.576D+00 0.424D+00
 Coeff:     -0.141D-01 0.576D+00 0.438D+00
 Gap=     0.325 Goal=   None    Shift=    0.000
 RMSDP=2.53D-05 MaxDP=4.19D-04 DE= 1.01D-06 OVMax= 5.37D-04

 Cycle   4  Pass 1  IDiag  1:
 E= -599.362039354478     Delta-E=       -0.000003617316 Rises=F Damp=F
 DIIS: error= 1.26D-05 at cycle   4 NSaved=   4.
 NSaved= 4 IEnMin= 4 EnMin= -599.362039354478     IErMin= 4 ErrMin= 1.26D-05
 ErrMax= 1.26D-05  0.00D+00 EMaxC= 1.00D-01 BMatC= 2.57D-08 BMatP= 2.44D-06
 IDIUse=1 WtCom= 1.00D+00 WtEn= 0.00D+00
 Coeff-Com: -0.143D-01 0.180D+00 0.152D+00 0.683D+00
 Coeff:     -0.143D-01 0.180D+00 0.152D+00 0.683D+00
 Gap=     0.325 Goal=   None    Shift=    0.000
 RMSDP=3.14D-06 MaxDP=3.86D-05 DE=-3.62D-06 OVMax= 4.58D-05

 Cycle   5  Pass 1  IDiag  1:
 E= -599.362039373833     Delta-E=       -0.000000019355 Rises=F Damp=F
 DIIS: error= 5.81D-06 at cycle   5 NSaved=   5.
 NSaved= 5 IEnMin= 5 EnMin= -599.362039373833     IErMin= 5 ErrMin= 5.81D-06
 ErrMax= 5.81D-06  0.00D+00 EMaxC= 1.00D-01 BMatC= 4.30D-09 BMatP= 2.57D-08
 IDIUse=1 WtCom= 1.00D+00 WtEn= 0.00D+00
 Coeff-Com: -0.398D-02 0.377D-01 0.341D-01 0.305D+00 0.627D+00
 Coeff:     -0.398D-02 0.377D-01 0.341D-01 0.305D+00 0.627D+00
 Gap=     0.325 Goal=   None    Shift=    0.000
 RMSDP=1.02D-06 MaxDP=1.40D-05 DE=-1.94D-08 OVMax= 1.60D-05

 Cycle   6  Pass 1  IDiag  1:
 E= -599.362039376610     Delta-E=       -0.000000002776 Rises=F Damp=F
 DIIS: error= 1.66D-06 at cycle   6 NSaved=   6.
 NSaved= 6 IEnMin= 6 EnMin= -599.362039376610     IErMin= 6 ErrMin= 1.66D-06
 ErrMax= 1.66D-06  0.00D+00 EMaxC= 1.00D-01 BMatC= 4.18D-10 BMatP= 4.30D-09
 IDIUse=1 WtCom= 1.00D+00 WtEn= 0.00D+00
 Coeff-Com: -0.419D-03 0.824D-03 0.200D-02 0.845D-01 0.298D+00 0.615D+00
 Coeff:     -0.419D-03 0.824D-03 0.200D-02 0.845D-01 0.298D+00 0.615D+00
 Gap=     0.325 Goal=   None    Shift=    0.000
 RMSDP=3.75D-07 MaxDP=6.38D-06 DE=-2.78D-09 OVMax= 8.94D-06

 Cycle   7  Pass 1  IDiag  1:
 E= -599.362039376955     Delta-E=       -0.000000000345 Rises=F Damp=F
 DIIS: error= 3.25D-07 at cycle   7 NSaved=   7.
 NSaved= 7 IEnMin= 7 EnMin= -599.362039376955     IErMin= 7 ErrMin= 3.25D-07
 ErrMax= 3.25D-07  0.00D+00 EMaxC= 1.00D-01 BMatC= 1.43D-11 BMatP= 4.18D-10
 IDIUse=1 WtCom= 1.00D+00 WtEn= 0.00D+00
 Coeff-Com:  0.750D-04-0.230D-02-0.149D-02 0.673D-02 0.501D-01 0.219D+00
 Coeff-Com:  0.728D+00
 Coeff:      0.750D-04-0.230D-02-0.149D-02 0.673D-02 0.501D-01 0.219D+00
 Coeff:      0.728D+00
 Gap=     0.325 Goal=   None    Shift=    0.000
 RMSDP=7.82D-08 MaxDP=1.42D-06 DE=-3.45D-10 OVMax= 1.29D-06

 Cycle   8  Pass 1  IDiag  1:
 E= -599.362039376970     Delta-E=       -0.000000000015 Rises=F Damp=F
 DIIS: error= 6.25D-08 at cycle   8 NSaved=   8.
 NSaved= 8 IEnMin= 8 EnMin= -599.362039376970     IErMin= 8 ErrMin= 6.25D-08
 ErrMax= 6.25D-08  0.00D+00 EMaxC= 1.00D-01 BMatC= 2.52D-13 BMatP= 1.43D-11
 IDIUse=1 WtCom= 1.00D+00 WtEn= 0.00D+00
 Coeff-Com:  0.442D-04-0.708D-03-0.516D-03-0.125D-02 0.292D-02 0.399D-01
 Coeff-Com:  0.182D+00 0.777D+00
 Coeff:      0.442D-04-0.708D-03-0.516D-03-0.125D-02 0.292D-02 0.399D-01
 Coeff:      0.182D+00 0.777D+00
 Gap=     0.325 Goal=   None    Shift=    0.000
 RMSDP=1.29D-08 MaxDP=1.91D-07 DE=-1.53D-11 OVMax= 1.89D-07

 Cycle   9  Pass 1  IDiag  1:
 E= -599.362039376972     Delta-E=       -0.000000000001 Rises=F Damp=F
 DIIS: error= 1.00D-08 at cycle   9 NSaved=   9.
 NSaved= 9 IEnMin= 9 EnMin= -599.362039376972     IErMin= 9 ErrMin= 1.00D-08
 ErrMax= 1.00D-08  0.00D+00 EMaxC= 1.00D-01 BMatC= 1.32D-14 BMatP= 2.52D-13
 IDIUse=1 WtCom= 1.00D+00 WtEn= 0.00D+00
 Coeff-Com:  0.479D-05-0.430D-04-0.407D-04-0.404D-03-0.129D-02 0.383D-03
 Coeff-Com:  0.374D-02 0.187D+00 0.810D+00
 Coeff:      0.479D-05-0.430D-04-0.407D-04-0.404D-03-0.129D-02 0.383D-03
 Coeff:      0.374D-02 0.187D+00 0.810D+00
 Gap=     0.325 Goal=   None    Shift=    0.000
 RMSDP=2.80D-09 MaxDP=4.30D-08 DE=-1.48D-12 OVMax= 4.98D-08

 SCF Done:  E(RB3LYP) =  -599.362039377     A.U. after    9 cycles
            NFock=  9  Conv=0.28D-08     -V/T= 2.0027
 KE= 5.977209047681D+02 PE=-1.624522030934D+03 EE= 3.270965569203D+02
 Leave Link  502 at Sat Sep 12 17:34:36 2026, MaxMem=  1073741824 cpu:               1.4 elap:               1.5
 (Enter /app1/ia32-64/Gaussian/Rev-C.02/g16/l701.exe)
 ... and contract with generalized density number  0.
 Compute integral first derivatives.
 Leave Link  701 at Sat Sep 12 17:34:36 2026, MaxMem=  1073741824 cpu:               0.1 elap:               0.1
 (Enter /app1/ia32-64/Gaussian/Rev-C.02/g16/l702.exe)
 L702 exits ... SP integral derivatives will be done elsewhere.
 Leave Link  702 at Sat Sep 12 17:34:36 2026, MaxMem=  1073741824 cpu:               0.0 elap:               0.0
 (Enter /app1/ia32-64/Gaussian/Rev-C.02/g16/l703.exe)
 Integral derivatives from FoFJK, PRISM(SPDF).
 Compute integral first derivatives, UseDBF=F ICtDFT=           0.
 Calling FoFJK, ICntrl=      2127 FMM=F ISym2X=1 I1Cent= 0 IOpClX= 0 NMat=1 NMatS=1 NMatT=0.
 FoFJK:  IHMeth= 1 ICntrl=    2127 DoSepK=F KAlg= 0 I1Cent=           0 FoldK=F
 IRaf=         0 NMat=       1 IRICut=       1 DoRegI=T DoRafI=F ISym2E= 1 IDoP0=0 IntGTp=1.
 FoFCou: FMM=F IPFlag=           0 FMFlag=      100000 FMFlg1=         800
         NFxFlg=           0 DoJE=F BraDBF=F KetDBF=F FulRan=T
         wScrn=  0.000000 ICntrl=      2127 IOpCl=  0 I1Cent=           0 NGrid=           0
         NMat0=    1 NMatS0=      1 NMatT0=    0 NMatD0=    1 NMtDS0=    0 NMtDT0=    0
 Petite list used in FoFCou.
 Leave Link  703 at Sat Sep 12 17:34:36 2026, MaxMem=  1073741824 cpu:               0.5 elap:               0.5
 (Enter /app1/ia32-64/Gaussian/Rev-C.02/g16/l716.exe)
 Dipole        =-3.44553725D-01 6.37625726D-01 0.00000000D+00
 ***** Axes restored to original set *****
 -------------------------------------------------------------------
 Center     Atomic                   Forces (Hartrees/Bohr)
 Number     Number              X              Y              Z
 -------------------------------------------------------------------
      1        6          -0.002175316    0.000000000    0.001625683
      2        9           0.000152685    0.000000000   -0.001494110
      3       17           0.001114782   -0.000000000   -0.000415214
      4        1           0.000453925    0.000734277    0.000141821
      5        1           0.000453925   -0.000734277    0.000141821
 -------------------------------------------------------------------
 Cartesian Forces:  Max     0.002175316 RMS     0.000915653
 Leave Link  716 at Sat Sep 12 17:34:36 2026, MaxMem=  1073741824 cpu:               0.0 elap:               0.0
 (Enter /app1/ia32-64/Gaussian/Rev-C.02/g16/l103.exe)

 GradGradGradGradGradGradGradGradGradGradGradGradGradGradGradGradGradGrad
 Berny optimization.
 Using GEDIIS/GDIIS optimizer.
 FormGI is forming the generalized inverse of G from B-inverse, IUseBI=4.
 Internal  Forces:  Max     0.001494613 RMS     0.000609504
 Search for a local minimum.
 Step number   3 out of a maximum of   24
 All quantities printed in internal units (Hartrees-Bohrs-Radians)
 RMS Force = .60950D-03 SwitMx=.10000D-02 MixMth= 2
 Mixed Optimization -- En-DIIS/RFO-DIIS
 Update second derivatives using D2CorX and points    1    2    3
 DE= -1.13D-04 DEPred=-9.24D-05 R= 1.22D+00
 TightC=F SS=  1.41D+00  RLast= 4.54D-02 DXNew= 5.0454D-01 1.3626D-01
 Trust test= 1.22D+00 RLast= 4.54D-02 DXMaxT set to 3.00D-01
 The second derivative matrix:
                          R1        R2        R3        R4        A1
           R1           0.54925
           R2           0.03452   0.20212
           R3           0.02004   0.01755   0.37107
           R4           0.02004   0.01755   0.02294   0.37107
           A1           0.00292   0.02581   0.00173   0.00173   0.24093
           A2          -0.00781  -0.02206  -0.00733  -0.00733  -0.00007
           A3          -0.00620  -0.01449  -0.00745  -0.00745   0.00016
           A4          -0.00583   0.03287  -0.00153  -0.00153  -0.00752
           A5          -0.00790   0.02780  -0.00293  -0.00293  -0.00852
           A6           0.02057  -0.04182   0.01128   0.01128   0.01723
           D1          -0.00158   0.00810  -0.00525  -0.00525  -0.00254
           D2           0.00127  -0.00669   0.00432   0.00432   0.00206
           D3          -0.00228  -0.01297   0.00132   0.00132  -0.00001
           D4          -0.00355  -0.00628  -0.00300  -0.00300  -0.00207
                          A2        A3        A4        A5        A6
           A2           0.16301
           A3           0.00200   0.16198
           A4           0.00465   0.00294   0.14954
           A5           0.00570   0.00341  -0.00956   0.15169
           A6          -0.01302  -0.00819   0.01622   0.01327   0.14114
           D1           0.00014   0.00154  -0.00265  -0.00340   0.00617
           D2          -0.00009  -0.00126   0.00218   0.00281  -0.00510
           D3           0.00164  -0.00025   0.00304   0.00413  -0.00858
           D4           0.00173   0.00101   0.00086   0.00132  -0.00348
                          D1        D2        D3        D4
           D1           0.00461
           D2          -0.00189   0.00393
           D3          -0.00278   0.00232   0.00600
           D4          -0.00089   0.00074   0.00133   0.00294
 ITU=  1  1  0
 Use linear search instead of GDIIS.
     Eigenvalues ---    0.04963   0.06998   0.09284   0.14097   0.16103
     Eigenvalues ---    0.21954   0.34813   0.39178   0.55996
 RFO step:  Lambda=-1.13548901D-05 EMin= 4.96260687D-02
 Quartic linear search produced a step of  0.24319.
 Iteration  1 RMS(Cart)=  0.00176777 RMS(Int)=  0.00002453
 Iteration  2 RMS(Cart)=  0.00000464 RMS(Int)=  0.00002403
 Iteration  3 RMS(Cart)=  0.00000000 RMS(Int)=  0.00002403
 ITry= 1 IFail=0 DXMaxC= 4.15D-03 DCOld= 1.00D+10 DXMaxT= 3.00D-01 DXLimC= 3.00D+00 Rises=F
 ClnCor:  largest displacement from symmetrization is 4.87D-05 for atom     5.
 Variable       Old X    -DE/DX   Delta X   Delta X   Delta X     New X
                                 (Linear)    (Quad)   (Total)
    R1        2.57751  -0.00149  -0.00031  -0.00290  -0.00322   2.57430
    R2        3.39787   0.00119   0.00538   0.00274   0.00812   3.40600
    R3        2.07859  -0.00086  -0.00037  -0.00203  -0.00239   2.07621
    R4        2.07859  -0.00086  -0.00037  -0.00203  -0.00239   2.07621
    A1        1.93053  -0.00006  -0.00105   0.00046  -0.00059   1.92994
    A2        1.91331   0.00007   0.00078   0.00082   0.00153   1.91485
    A3        1.91331   0.00015   0.00078   0.00075   0.00153   1.91485
    A4        1.87214  -0.00001  -0.00297   0.00027  -0.00267   1.86946
    A5        1.87214  -0.00008  -0.00297   0.00029  -0.00267   1.86946
    A6        1.96185  -0.00007   0.00529  -0.00261   0.00266   1.96451
    D1       -2.09693   0.00005   0.00259  -0.00118   0.00143  -2.09550
    D2        2.09693  -0.00004  -0.00259   0.00115  -0.00143   2.09550
    D3       -2.13258  -0.00014  -0.00503   0.00019  -0.00488  -2.13746
    D4        2.05367  -0.00010  -0.00244  -0.00096  -0.00344   2.05023
         Item               Value     Threshold  Converged?
 Maximum Force            0.001495     0.000015     NO 
 RMS     Force            0.000610     0.000010     NO 
 Maximum Displacement     0.004150     0.000060     NO 
 RMS     Displacement     0.001768     0.000040     NO 
 Predicted change in Energy=-9.934433D-06
 Lowest energy point so far.  Saving SCF results.
 GradGradGradGradGradGradGradGradGradGradGradGradGradGradGradGradGradGrad

 Leave Link  103 at Sat Sep 12 17:34:37 2026, MaxMem=  1073741824 cpu:               0.0 elap:               0.0
 (Enter /app1/ia32-64/Gaussian/Rev-C.02/g16/l202.exe)
                          Input orientation:                          
 ---------------------------------------------------------------------
 Center     Atomic      Atomic             Coordinates (Angstroms)
 Number     Number       Type             X           Y           Z
 ---------------------------------------------------------------------
      1          6           0       -0.017809    0.000000    0.004743
      2          9           0       -0.020221    0.000000    1.367000
      3         17           0        1.670693    0.000000   -0.625748
      4          1           0       -0.501594   -0.913828   -0.366701
      5          1           0       -0.501594    0.913828   -0.366701
 ---------------------------------------------------------------------
                    Distance matrix (angstroms):
                    1          2          3          4          5
     1  C    0.000000
     2  F    1.362259   0.000000
     3  Cl   1.802376   2.613472   0.000000
     4  H    1.098681   2.018048   2.370868   0.000000
     5  H    1.098681   2.018048   2.370868   1.827656   0.000000
 Stoichiometry    CH2ClF
 Framework group  CS[SG(CClF),X(H2)]
 Deg. of freedom     6
 Full point group                 CS      NOp   2
 RotChk:  IX=0 Diff= 2.96D-03
 Largest Abelian subgroup         CS      NOp   2
 Largest concise Abelian subgroup CS      NOp   2
                         Standard orientation:                         
 ---------------------------------------------------------------------
 Center     Atomic      Atomic             Coordinates (Angstroms)
 Number     Number       Type             X           Y           Z
 ---------------------------------------------------------------------
      1          6           0       -0.000000    0.815494    0.000000
      2          9           0        1.361761    0.778644    0.000000
      3         17           0       -0.678891   -0.854137    0.000000
      4          1           0       -0.357347    1.309782    0.913828
      5          1           0       -0.357347    1.309782   -0.913828
 ---------------------------------------------------------------------
 Rotational constants (GHZ):          41.8097595           5.5402566           5.0567968
 Leave Link  202 at Sat Sep 12 17:34:37 2026, MaxMem=  1073741824 cpu:               0.0 elap:               0.1
 (Enter /app1/ia32-64/Gaussian/Rev-C.02/g16/l301.exe)
 Standard basis: CC-pVDZ (5D, 7F)
 Ernie: Thresh=  0.10000D-02 Tol=  0.10000D-05 Strict=F.
 Ernie:  14 primitive shells out of 104 were deleted.
 There are    41 symmetry adapted cartesian basis functions of A'  symmetry.
 There are    18 symmetry adapted cartesian basis functions of A"  symmetry.
 There are    38 symmetry adapted basis functions of A'  symmetry.
 There are    18 symmetry adapted basis functions of A"  symmetry.
    56 basis functions,   151 primitive gaussians,    59 cartesian basis functions
    17 alpha electrons       17 beta electrons
       nuclear repulsion energy       100.2814111662 Hartrees.
 IExCor=  402 DFT=T Ex+Corr=B3LYP ExCW=0 ScaHFX=  0.200000
 ScaDFX=  0.800000  0.720000  1.000000  0.810000 ScalE2=  1.000000  1.000000
 IRadAn=      5 IRanWt=     -1 IRanGd=            0 ICorTp=0 IEmpDi=  4
 NAtoms=    5 NActive=    5 NUniq=    4 SFac= 1.56D+00 NAtFMM=   60 NAOKFM=F Big=F
 Integral buffers will be    131072 words long.
 Raffenetti 2 integral format.
 Two-electron integral symmetry is turned on.
 Leave Link  301 at Sat Sep 12 17:34:37 2026, MaxMem=  1073741824 cpu:               0.0 elap:               0.0
 (Enter /app1/ia32-64/Gaussian/Rev-C.02/g16/l302.exe)
 NPDir=0 NMtPBC=     1 NCelOv=     1 NCel=       1 NClECP=     1 NCelD=      1
         NCelK=      1 NCelE2=     1 NClLst=     1 CellRange=     0.0.
 One-electron integrals computed using PRISM.
 One-electron integral symmetry used in STVInt
 NBasis=    56 RedAO= T EigKep=  1.55D-02  NBF=    38    18
 NBsUse=    56 1.00D-06 EigRej= -1.00D+00 NBFU=    38    18
 Precomputing XC quadrature grid using
 IXCGrd= 4 IRadAn=           5 IRanWt=          -1 IRanGd=           0 AccXCQ= 0.00D+00.
 Generated NRdTot=       0 NPtTot=           0 NUsed=           0 NTot=          32
 NSgBfM=    59    59    59    59    59 MxSgAt=     5 MxSgA2=     5.
 Leave Link  302 at Sat Sep 12 17:34:37 2026, MaxMem=  1073741824 cpu:               0.1 elap:               0.1
 (Enter /app1/ia32-64/Gaussian/Rev-C.02/g16/l303.exe)
 DipDrv:  MaxL=1.
 Leave Link  303 at Sat Sep 12 17:34:37 2026, MaxMem=  1073741824 cpu:               0.0 elap:               0.0
 (Enter /app1/ia32-64/Gaussian/Rev-C.02/g16/l401.exe)
 Initial guess from the checkpoint file:  "ch2fcl_b3lyp_ccpvdz.chk"
 B after Tr=    -0.000000   -0.000000   -0.000000
         Rot=    0.999999   -0.000000   -0.000000   -0.001111 Ang=  -0.13 deg.
 Guess basis will be translated and rotated to current coordinates.
 JPrj=2 DoOrth=T DoCkMO=T.
 Initial guess orbital symmetries:
       Occupied  (A') (A') (A') (A') (A') (A') (A") (A') (A') (A')
                 (A") (A') (A') (A") (A') (A') (A")
       Virtual   (A') (A') (A") (A') (A') (A") (A') (A') (A") (A')
                 (A') (A") (A') (A') (A") (A') (A") (A') (A') (A")
                 (A') (A') (A") (A') (A") (A') (A") (A') (A') (A")
                 (A') (A') (A") (A') (A") (A') (A') (A") (A')
 The electronic state of the initial guess is 1-A'.
 Leave Link  401 at Sat Sep 12 17:34:37 2026, MaxMem=  1073741824 cpu:               0.0 elap:               0.1
 (Enter /app1/ia32-64/Gaussian/Rev-C.02/g16/l502.exe)
 Keep R1 ints in memory in symmetry-blocked form, NReq=2160176.
 FoFCou: FMM=F IPFlag=           0 FMFlag=           0 FMFlg1=           0
         NFxFlg=           0 DoJE=F BraDBF=F KetDBF=F FulRan=T
         wScrn=  0.000000 ICntrl=       600 IOpCl=  0 I1Cent=           0 NGrid=           0
         NMat0=    1 NMatS0=   1596 NMatT0=    0 NMatD0=    1 NMtDS0=    0 NMtDT0=    0
 Petite list used in FoFCou.
 Closed shell SCF:
 Using DIIS extrapolation, IDIIS=  1040.
 NGot=  1073741824 LenX=  1073079033 LenY=  1073075111
 Requested convergence on RMS density matrix=1.00D-08 within 128 cycles.
 Requested convergence on MAX density matrix=1.00D-06.
 Requested convergence on             energy=1.00D-06.
 No special actions if energy rises.

 Cycle   1  Pass 1  IDiag  1:
 E= -599.362043114126    
 DIIS: error= 1.90D-04 at cycle   1 NSaved=   1.
 NSaved= 1 IEnMin= 1 EnMin= -599.362043114126     IErMin= 1 ErrMin= 1.90D-04
 ErrMax= 1.90D-04  0.00D+00 EMaxC= 1.00D-01 BMatC= 4.37D-06 BMatP= 4.37D-06
 IDIUse=3 WtCom= 9.98D-01 WtEn= 1.90D-03
 Coeff-Com:  0.100D+01
 Coeff-En:   0.100D+01
 Coeff:      0.100D+01
 Gap=     0.324 Goal=   None    Shift=    0.000
 RMSDP=6.49D-05 MaxDP=7.03D-04              OVMax= 1.23D-03

 Cycle   2  Pass 1  IDiag  1:
 E= -599.362050808840     Delta-E=       -0.000007694714 Rises=F Damp=F
 DIIS: error= 5.97D-05 at cycle   2 NSaved=   2.
 NSaved= 2 IEnMin= 2 EnMin= -599.362050808840     IErMin= 2 ErrMin= 5.97D-05
 ErrMax= 5.97D-05  0.00D+00 EMaxC= 1.00D-01 BMatC= 3.22D-07 BMatP= 4.37D-06
 IDIUse=1 WtCom= 1.00D+00 WtEn= 0.00D+00
 Coeff-Com:  0.819D-01 0.918D+00
 Coeff:      0.819D-01 0.918D+00
 Gap=     0.324 Goal=   None    Shift=    0.000
 RMSDP=1.38D-05 MaxDP=1.64D-04 DE=-7.69D-06 OVMax= 2.86D-04

 Cycle   3  Pass 1  IDiag  1:
 E= -599.362050774739     Delta-E=        0.000000034100 Rises=F Damp=F
 DIIS: error= 6.94D-05 at cycle   3 NSaved=   3.
 NSaved= 3 IEnMin= 2 EnMin= -599.362050808840     IErMin= 2 ErrMin= 5.97D-05
 ErrMax= 6.94D-05  0.00D+00 EMaxC= 1.00D-01 BMatC= 4.10D-07 BMatP= 3.22D-07
 IDIUse=1 WtCom= 1.00D+00 WtEn= 0.00D+00
 Coeff-Com: -0.211D-01 0.537D+00 0.484D+00
 Coeff:     -0.211D-01 0.537D+00 0.484D+00
 Gap=     0.324 Goal=   None    Shift=    0.000
 RMSDP=7.70D-06 MaxDP=1.26D-04 DE= 3.41D-08 OVMax= 1.60D-04

 Cycle   4  Pass 1  IDiag  1:
 E= -599.362051081258     Delta-E=       -0.000000306518 Rises=F Damp=F
 DIIS: error= 1.03D-05 at cycle   4 NSaved=   4.
 NSaved= 4 IEnMin= 4 EnMin= -599.362051081258     IErMin= 4 ErrMin= 1.03D-05
 ErrMax= 1.03D-05  0.00D+00 EMaxC= 1.00D-01 BMatC= 8.97D-09 BMatP= 3.22D-07
 IDIUse=1 WtCom= 1.00D+00 WtEn= 0.00D+00
 Coeff-Com: -0.111D-01 0.149D+00 0.200D+00 0.662D+00
 Coeff:     -0.111D-01 0.149D+00 0.200D+00 0.662D+00
 Gap=     0.324 Goal=   None    Shift=    0.000
 RMSDP=1.28D-06 MaxDP=1.67D-05 DE=-3.07D-07 OVMax= 2.16D-05

 Cycle   5  Pass 1  IDiag  1:
 E= -599.362051088241     Delta-E=       -0.000000006983 Rises=F Damp=F
 DIIS: error= 1.60D-06 at cycle   5 NSaved=   5.
 NSaved= 5 IEnMin= 5 EnMin= -599.362051088241     IErMin= 5 ErrMin= 1.60D-06
 ErrMax= 1.60D-06  0.00D+00 EMaxC= 1.00D-01 BMatC= 2.15D-10 BMatP= 8.97D-09
 IDIUse=1 WtCom= 1.00D+00 WtEn= 0.00D+00
 Coeff-Com: -0.298D-02 0.257D-01 0.469D-01 0.202D+00 0.728D+00
 Coeff:     -0.298D-02 0.257D-01 0.469D-01 0.202D+00 0.728D+00
 Gap=     0.324 Goal=   None    Shift=    0.000
 RMSDP=2.81D-07 MaxDP=2.12D-06 DE=-6.98D-09 OVMax= 4.87D-06

 Cycle   6  Pass 1  IDiag  1:
 E= -599.362051088437     Delta-E=       -0.000000000196 Rises=F Damp=F
 DIIS: error= 6.10D-07 at cycle   6 NSaved=   6.
 NSaved= 6 IEnMin= 6 EnMin= -599.362051088437     IErMin= 6 ErrMin= 6.10D-07
 ErrMax= 6.10D-07  0.00D+00 EMaxC= 1.00D-01 BMatC= 3.13D-11 BMatP= 2.15D-10
 IDIUse=1 WtCom= 1.00D+00 WtEn= 0.00D+00
 Coeff-Com: -0.492D-03 0.204D-02 0.909D-02 0.557D-01 0.334D+00 0.600D+00
 Coeff:     -0.492D-03 0.204D-02 0.909D-02 0.557D-01 0.334D+00 0.600D+00
 Gap=     0.324 Goal=   None    Shift=    0.000
 RMSDP=1.08D-07 MaxDP=1.59D-06 DE=-1.96D-10 OVMax= 2.56D-06

 Cycle   7  Pass 1  IDiag  1:
 E= -599.362051088464     Delta-E=       -0.000000000027 Rises=F Damp=F
 DIIS: error= 1.74D-07 at cycle   7 NSaved=   7.
 NSaved= 7 IEnMin= 7 EnMin= -599.362051088464     IErMin= 7 ErrMin= 1.74D-07
 ErrMax= 1.74D-07  0.00D+00 EMaxC= 1.00D-01 BMatC= 2.72D-12 BMatP= 3.13D-11
 IDIUse=1 WtCom= 1.00D+00 WtEn= 0.00D+00
 Coeff-Com: -0.974D-05-0.113D-02-0.309D-03 0.466D-02 0.717D-01 0.280D+00
 Coeff-Com:  0.645D+00
 Coeff:     -0.974D-05-0.113D-02-0.309D-03 0.466D-02 0.717D-01 0.280D+00
 Coeff:      0.645D+00
 Gap=     0.324 Goal=   None    Shift=    0.000
 RMSDP=3.00D-08 MaxDP=4.76D-07 DE=-2.71D-11 OVMax= 5.44D-07

 Cycle   8  Pass 1  IDiag  1:
 E= -599.362051088465     Delta-E=       -0.000000000001 Rises=F Damp=F
 DIIS: error= 2.64D-08 at cycle   8 NSaved=   8.
 NSaved= 8 IEnMin= 8 EnMin= -599.362051088465     IErMin= 8 ErrMin= 2.64D-08
 ErrMax= 2.64D-08  0.00D+00 EMaxC= 1.00D-01 BMatC= 5.19D-14 BMatP= 2.72D-12
 IDIUse=1 WtCom= 1.00D+00 WtEn= 0.00D+00
 Coeff-Com:  0.283D-04-0.520D-03-0.590D-03-0.934D-03 0.920D-02 0.680D-01
 Coeff-Com:  0.196D+00 0.729D+00
 Coeff:      0.283D-04-0.520D-03-0.590D-03-0.934D-03 0.920D-02 0.680D-01
 Coeff:      0.196D+00 0.729D+00
 Gap=     0.324 Goal=   None    Shift=    0.000
 RMSDP=6.59D-09 MaxDP=1.20D-07 DE=-1.14D-12 OVMax= 1.14D-07

 SCF Done:  E(RB3LYP) =  -599.362051088     A.U. after    8 cycles
            NFock=  8  Conv=0.66D-08     -V/T= 2.0027
 KE= 5.977216691824D+02 PE=-1.624399742781D+03 EE= 3.270346113436D+02
 Leave Link  502 at Sat Sep 12 17:34:38 2026, MaxMem=  1073741824 cpu:               1.3 elap:               1.4
 (Enter /app1/ia32-64/Gaussian/Rev-C.02/g16/l701.exe)
 ... and contract with generalized density number  0.
 Compute integral first derivatives.
 Leave Link  701 at Sat Sep 12 17:34:39 2026, MaxMem=  1073741824 cpu:               0.1 elap:               0.1
 (Enter /app1/ia32-64/Gaussian/Rev-C.02/g16/l702.exe)
 L702 exits ... SP integral derivatives will be done elsewhere.
 Leave Link  702 at Sat Sep 12 17:34:39 2026, MaxMem=  1073741824 cpu:               0.0 elap:               0.0
 (Enter /app1/ia32-64/Gaussian/Rev-C.02/g16/l703.exe)
 Integral derivatives from FoFJK, PRISM(SPDF).
 Compute integral first derivatives, UseDBF=F ICtDFT=           0.
 Calling FoFJK, ICntrl=      2127 FMM=F ISym2X=1 I1Cent= 0 IOpClX= 0 NMat=1 NMatS=1 NMatT=0.
 FoFJK:  IHMeth= 1 ICntrl=    2127 DoSepK=F KAlg= 0 I1Cent=           0 FoldK=F
 IRaf=         0 NMat=       1 IRICut=       1 DoRegI=T DoRafI=F ISym2E= 1 IDoP0=0 IntGTp=1.
 FoFCou: FMM=F IPFlag=           0 FMFlag=      100000 FMFlg1=         800
         NFxFlg=           0 DoJE=F BraDBF=F KetDBF=F FulRan=T
         wScrn=  0.000000 ICntrl=      2127 IOpCl=  0 I1Cent=           0 NGrid=           0
         NMat0=    1 NMatS0=      1 NMatT0=    0 NMatD0=    1 NMtDS0=    0 NMtDT0=    0
 Petite list used in FoFCou.
 Leave Link  703 at Sat Sep 12 17:34:39 2026, MaxMem=  1073741824 cpu:               0.5 elap:               0.5
 (Enter /app1/ia32-64/Gaussian/Rev-C.02/g16/l716.exe)
 Dipole        =-3.39442604D-01 6.44470597D-01-2.22044605D-16
 ***** Axes restored to original set *****
 -------------------------------------------------------------------
 Center     Atomic                   Forces (Hartrees/Bohr)
 Number     Number              X              Y              Z
 -------------------------------------------------------------------
      1        6          -0.000147610   -0.000000000    0.000950571
      2        9           0.000096878   -0.000000000   -0.000712966
      3       17           0.000027729    0.000000000   -0.000006380
      4        1           0.000011501    0.000145209   -0.000115613
      5        1           0.000011501   -0.000145209   -0.000115613
 -------------------------------------------------------------------
 Cartesian Forces:  Max     0.000950571 RMS     0.000317601
 Leave Link  716 at Sat Sep 12 17:34:39 2026, MaxMem=  1073741824 cpu:               0.0 elap:               0.0
 (Enter /app1/ia32-64/Gaussian/Rev-C.02/g16/l103.exe)

 GradGradGradGradGradGradGradGradGradGradGradGradGradGradGradGradGradGrad
 Berny optimization.
 Using GEDIIS/GDIIS optimizer.
 FormGI is forming the generalized inverse of G from B-inverse, IUseBI=4.
 Internal  Forces:  Max     0.000713214 RMS     0.000208876
 Search for a local minimum.
 Step number   4 out of a maximum of   24
 All quantities printed in internal units (Hartrees-Bohrs-Radians)
 RMS Force = .20888D-03 SwitMx=.10000D-02 MixMth= 2
 Mixed Optimization -- En-DIIS/RFO-DIIS
 Swapping is turned off.
 Update second derivatives using D2CorX and points    1    2    3    4
 DE= -1.17D-05 DEPred=-9.93D-06 R= 1.18D+00
 TightC=F SS=  1.41D+00  RLast= 1.24D-02 DXNew= 5.0454D-01 3.7214D-02
 Trust test= 1.18D+00 RLast= 1.24D-02 DXMaxT set to 3.00D-01
 The second derivative matrix:
                          R1        R2        R3        R4        A1
           R1           0.48316
           R2           0.06731   0.20937
           R3          -0.01203   0.01086   0.36271
           R4          -0.01203   0.01086   0.01459   0.36271
           A1          -0.00165   0.00311  -0.00924  -0.00924   0.22254
           A2           0.00229  -0.02024   0.00461   0.00461   0.00949
           A3           0.00590  -0.01998   0.00203   0.00203   0.00596
           A4          -0.01122   0.02784  -0.00531  -0.00531  -0.00960
           A5          -0.01413   0.02612  -0.00523  -0.00523  -0.00845
           A6           0.01291  -0.02036   0.00180   0.00180   0.01491
           D1           0.00236  -0.00526  -0.00857  -0.00857  -0.00789
           D2          -0.00199   0.00432   0.00710   0.00710   0.00650
           D3          -0.00646   0.00125   0.00582   0.00582   0.00694
           D4          -0.00448  -0.00307  -0.00128  -0.00128   0.00045
                          A2        A3        A4        A5        A6
           A2           0.15794
           A3          -0.00169   0.15910
           A4           0.00657   0.00497   0.14962
           A5           0.00682   0.00500  -0.00944   0.15164
           A6          -0.01308  -0.00849   0.01373   0.01074   0.14724
           D1           0.00206   0.00277  -0.00210  -0.00238   0.00524
           D2          -0.00167  -0.00227   0.00173   0.00197  -0.00435
           D3          -0.00085  -0.00171   0.00274   0.00317  -0.00807
           D4           0.00082   0.00056   0.00100   0.00120  -0.00372
                          D1        D2        D3        D4
           D1           0.00393
           D2          -0.00133   0.00346
           D3          -0.00156   0.00132   0.00415
           D4          -0.00024   0.00020   0.00049   0.00263
 ITU=  1  1  1  0
     Eigenvalues ---    0.04388   0.07166   0.09374   0.15026   0.16351
     Eigenvalues ---    0.20881   0.34813   0.37807   0.50077
 En-DIIS/RFO-DIIS/Sim-DIIS IScMMF=       -3 using points:     4    3
 RFO step:  Lambda=-2.12077457D-06.
 NNeg= 0 NGDIIS= 2 SimSw=  2.50D-01 Rises=F DC= -1.17D-05 SmlDif=  1.00D-05
 NRisDI= 0 DoIntr=F SqrtH=F CThrHd= 10.0 CDAdj=  3.0
 RMS Error=  0.1150313131D-02 NUsed= 2 OKEnD=T EnDIS=F
 InvSVX:  RCond= 3.85D-05 Info=           0 Equed=N FErr=  1.57D-15 BErr=  1.80D-17
 DidBck=F Rises=F RFO-DIIS coefs:    1.25657   -0.25657
 Iteration  1 RMS(Cart)=  0.00061222 RMS(Int)=  0.00000129
 Iteration  2 RMS(Cart)=  0.00000085 RMS(Int)=  0.00000104
 ITry= 1 IFail=0 DXMaxC= 1.38D-03 DCOld= 1.00D+10 DXMaxT= 3.00D-01 DXLimC= 3.00D+00 Rises=F
 ClnCor:  largest displacement from symmetrization is 2.30D-05 for atom     5.
 Variable       Old X    -DE/DX   Delta X   Delta X   Delta X     New X
                                 (Linear)    (Quad)   (Total)
    R1        2.57430  -0.00071  -0.00083  -0.00091  -0.00173   2.57256
    R2        3.40600   0.00003   0.00208  -0.00099   0.00110   3.40709
    R3        2.07621  -0.00009  -0.00061   0.00028  -0.00034   2.07587
    R4        2.07621  -0.00009  -0.00061   0.00028  -0.00034   2.07587
    A1        1.92994  -0.00006  -0.00015  -0.00018  -0.00033   1.92960
    A2        1.91485   0.00009   0.00039   0.00095   0.00135   1.91619
    A3        1.91485   0.00014   0.00039   0.00097   0.00135   1.91619
    A4        1.86946   0.00004  -0.00069  -0.00010  -0.00079   1.86868
    A5        1.86946  -0.00000  -0.00069  -0.00011  -0.00079   1.86868
    A6        1.96451  -0.00021   0.00068  -0.00159  -0.00091   1.96359
    D1       -2.09550   0.00000   0.00037  -0.00026   0.00011  -2.09539
    D2        2.09550  -0.00000  -0.00037   0.00026  -0.00011   2.09539
    D3       -2.13746  -0.00008  -0.00125  -0.00083  -0.00207  -2.13953
    D4        2.05023  -0.00007  -0.00088  -0.00109  -0.00196   2.04826
         Item               Value     Threshold  Converged?
 Maximum Force            0.000713     0.000015     NO 
 RMS     Force            0.000209     0.000010     NO 
 Maximum Displacement     0.001378     0.000060     NO 
 RMS     Displacement     0.000611     0.000040     NO 
 Predicted change in Energy=-1.060149D-06
 Lowest energy point so far.  Saving SCF results.
 GradGradGradGradGradGradGradGradGradGradGradGradGradGradGradGradGradGrad

 Leave Link  103 at Sat Sep 12 17:34:39 2026, MaxMem=  1073741824 cpu:               0.0 elap:               0.0
 (Enter /app1/ia32-64/Gaussian/Rev-C.02/g16/l202.exe)
                          Input orientation:                          
 ---------------------------------------------------------------------
 Center     Atomic      Atomic             Coordinates (Angstroms)
 Number     Number       Type             X           Y           Z
 ---------------------------------------------------------------------
      1          6           0       -0.018210    0.000000    0.005472
      2          9           0       -0.019838    0.000000    1.366813
      3         17           0        1.670683    0.000000   -0.625631
      4          1           0       -0.501584   -0.913402   -0.367026
      5          1           0       -0.501584    0.913402   -0.367026
 ---------------------------------------------------------------------
                    Distance matrix (angstroms):
                    1          2          3          4          5
     1  C    0.000000
     2  F    1.361342   0.000000
     3  Cl   1.802956   2.612985   0.000000
     4  H    1.098503   2.018063   2.370638   0.000000
     5  H    1.098503   2.018063   2.370638   1.826804   0.000000
 Stoichiometry    CH2ClF
 Framework group  CS[SG(CClF),X(H2)]
 Deg. of freedom     6
 Full point group                 CS      NOp   2
 RotChk:  IX=0 Diff= 1.08D-03
 Largest Abelian subgroup         CS      NOp   2
 Largest concise Abelian subgroup CS      NOp   2
                         Standard orientation:                         
 ---------------------------------------------------------------------
 Center     Atomic      Atomic             Coordinates (Angstroms)
 Number     Number       Type             X           Y           Z
 ---------------------------------------------------------------------
      1          6           0        0.000000    0.815903    0.000000
      2          9           0        1.360850    0.779335    0.000000
      3         17           0       -0.678240   -0.854618    0.000000
      4          1           0       -0.358789    1.309538    0.913402
      5          1           0       -0.358789    1.309538   -0.913402
 ---------------------------------------------------------------------
 Rotational constants (GHZ):          41.8159043           5.5415565           5.0578107
 Leave Link  202 at Sat Sep 12 17:34:40 2026, MaxMem=  1073741824 cpu:               0.0 elap:               0.1
 (Enter /app1/ia32-64/Gaussian/Rev-C.02/g16/l301.exe)
 Standard basis: CC-pVDZ (5D, 7F)
 Ernie: Thresh=  0.10000D-02 Tol=  0.10000D-05 Strict=F.
 Ernie:  14 primitive shells out of 104 were deleted.
 There are    41 symmetry adapted cartesian basis functions of A'  symmetry.
 There are    18 symmetry adapted cartesian basis functions of A"  symmetry.
 There are    38 symmetry adapted basis functions of A'  symmetry.
 There are    18 symmetry adapted basis functions of A"  symmetry.
    56 basis functions,   151 primitive gaussians,    59 cartesian basis functions
    17 alpha electrons       17 beta electrons
       nuclear repulsion energy       100.2934580038 Hartrees.
 IExCor=  402 DFT=T Ex+Corr=B3LYP ExCW=0 ScaHFX=  0.200000
 ScaDFX=  0.800000  0.720000  1.000000  0.810000 ScalE2=  1.000000  1.000000
 IRadAn=      5 IRanWt=     -1 IRanGd=            0 ICorTp=0 IEmpDi=  4
 NAtoms=    5 NActive=    5 NUniq=    4 SFac= 1.56D+00 NAtFMM=   60 NAOKFM=F Big=F
 Integral buffers will be    131072 words long.
 Raffenetti 2 integral format.
 Two-electron integral symmetry is turned on.
 Leave Link  301 at Sat Sep 12 17:34:40 2026, MaxMem=  1073741824 cpu:               0.0 elap:               0.0
 (Enter /app1/ia32-64/Gaussian/Rev-C.02/g16/l302.exe)
 NPDir=0 NMtPBC=     1 NCelOv=     1 NCel=       1 NClECP=     1 NCelD=      1
         NCelK=      1 NCelE2=     1 NClLst=     1 CellRange=     0.0.
 One-electron integrals computed using PRISM.
 One-electron integral symmetry used in STVInt
 NBasis=    56 RedAO= T EigKep=  1.55D-02  NBF=    38    18
 NBsUse=    56 1.00D-06 EigRej= -1.00D+00 NBFU=    38    18
 Precomputing XC quadrature grid using
 IXCGrd= 4 IRadAn=           5 IRanWt=          -1 IRanGd=           0 AccXCQ= 0.00D+00.
 Generated NRdTot=       0 NPtTot=           0 NUsed=           0 NTot=          32
 NSgBfM=    59    59    59    59    59 MxSgAt=     5 MxSgA2=     5.
 Leave Link  302 at Sat Sep 12 17:34:40 2026, MaxMem=  1073741824 cpu:               0.1 elap:               0.1
 (Enter /app1/ia32-64/Gaussian/Rev-C.02/g16/l303.exe)
 DipDrv:  MaxL=1.
 Leave Link  303 at Sat Sep 12 17:34:40 2026, MaxMem=  1073741824 cpu:               0.0 elap:               0.0
 (Enter /app1/ia32-64/Gaussian/Rev-C.02/g16/l401.exe)
 Initial guess from the checkpoint file:  "ch2fcl_b3lyp_ccpvdz.chk"
 B after Tr=     0.000000    0.000000   -0.000000
         Rot=    1.000000   -0.000000   -0.000000   -0.000338 Ang=  -0.04 deg.
 Guess basis will be translated and rotated to current coordinates.
 JPrj=2 DoOrth=T DoCkMO=T.
 Initial guess orbital symmetries:
       Occupied  (A') (A') (A') (A') (A') (A') (A") (A') (A') (A')
                 (A") (A') (A') (A") (A') (A') (A")
       Virtual   (A') (A') (A") (A') (A') (A") (A') (A') (A") (A')
                 (A') (A") (A') (A') (A") (A') (A") (A') (A') (A")
                 (A') (A') (A") (A') (A") (A') (A") (A') (A') (A")
                 (A') (A') (A") (A') (A") (A') (A') (A") (A')
 The electronic state of the initial guess is 1-A'.
 Leave Link  401 at Sat Sep 12 17:34:40 2026, MaxMem=  1073741824 cpu:               0.1 elap:               0.1
 (Enter /app1/ia32-64/Gaussian/Rev-C.02/g16/l502.exe)
 Keep R1 ints in memory in symmetry-blocked form, NReq=2160176.
 FoFCou: FMM=F IPFlag=           0 FMFlag=           0 FMFlg1=           0
         NFxFlg=           0 DoJE=F BraDBF=F KetDBF=F FulRan=T
         wScrn=  0.000000 ICntrl=       600 IOpCl=  0 I1Cent=           0 NGrid=           0
         NMat0=    1 NMatS0=   1596 NMatT0=    0 NMatD0=    1 NMtDS0=    0 NMtDT0=    0
 Petite list used in FoFCou.
 Closed shell SCF:
 Using DIIS extrapolation, IDIIS=  1040.
 NGot=  1073741824 LenX=  1073079033 LenY=  1073075111
 Requested convergence on RMS density matrix=1.00D-08 within 128 cycles.
 Requested convergence on MAX density matrix=1.00D-06.
 Requested convergence on             energy=1.00D-06.
 No special actions if energy rises.

 Cycle   1  Pass 1  IDiag  1:
 E= -599.362051617740    
 DIIS: error= 8.02D-05 at cycle   1 NSaved=   1.
 NSaved= 1 IEnMin= 1 EnMin= -599.362051617740     IErMin= 1 ErrMin= 8.02D-05
 ErrMax= 8.02D-05  0.00D+00 EMaxC= 1.00D-01 BMatC= 5.21D-07 BMatP= 5.21D-07
 IDIUse=1 WtCom= 1.00D+00 WtEn= 0.00D+00
 Coeff-Com:  0.100D+01
 Coeff:      0.100D+01
 Gap=     0.324 Goal=   None    Shift=    0.000
 RMSDP=1.90D-05 MaxDP=1.54D-04              OVMax= 2.79D-04

 Cycle   2  Pass 1  IDiag  1:
 E= -599.362052339703     Delta-E=       -0.000000721963 Rises=F Damp=F
 DIIS: error= 2.91D-05 at cycle   2 NSaved=   2.
 NSaved= 2 IEnMin= 2 EnMin= -599.362052339703     IErMin= 2 ErrMin= 2.91D-05
 ErrMax= 2.91D-05  0.00D+00 EMaxC= 1.00D-01 BMatC= 5.22D-08 BMatP= 5.21D-07
 IDIUse=1 WtCom= 1.00D+00 WtEn= 0.00D+00
 Coeff-Com:  0.138D+00 0.862D+00
 Coeff:      0.138D+00 0.862D+00
 Gap=     0.324 Goal=   None    Shift=    0.000
 RMSDP=4.31D-06 MaxDP=8.30D-05 DE=-7.22D-07 OVMax= 6.28D-05

 Cycle   3  Pass 1  IDiag  1:
 E= -599.362052339440     Delta-E=        0.000000000263 Rises=F Damp=F
 DIIS: error= 2.65D-05 at cycle   3 NSaved=   3.
 NSaved= 3 IEnMin= 2 EnMin= -599.362052339703     IErMin= 3 ErrMin= 2.65D-05
 ErrMax= 2.65D-05  0.00D+00 EMaxC= 1.00D-01 BMatC= 5.32D-08 BMatP= 5.22D-08
 IDIUse=1 WtCom= 1.00D+00 WtEn= 0.00D+00
 Coeff-Com: -0.141D-01 0.503D+00 0.511D+00
 Coeff:     -0.141D-01 0.503D+00 0.511D+00
 Gap=     0.324 Goal=   None    Shift=    0.000
 RMSDP=2.69D-06 MaxDP=5.14D-05 DE= 2.63D-10 OVMax= 5.45D-05

 Cycle   4  Pass 1  IDiag  1:
 E= -599.362052372285     Delta-E=       -0.000000032845 Rises=F Damp=F
 DIIS: error= 4.02D-06 at cycle   4 NSaved=   4.
 NSaved= 4 IEnMin= 4 EnMin= -599.362052372285     IErMin= 4 ErrMin= 4.02D-06
 ErrMax= 4.02D-06  0.00D+00 EMaxC= 1.00D-01 BMatC= 1.09D-09 BMatP= 5.22D-08
 IDIUse=1 WtCom= 1.00D+00 WtEn= 0.00D+00
 Coeff-Com: -0.109D-01 0.125D+00 0.204D+00 0.683D+00
 Coeff:     -0.109D-01 0.125D+00 0.204D+00 0.683D+00
 Gap=     0.324 Goal=   None    Shift=    0.000
 RMSDP=4.16D-07 MaxDP=6.63D-06 DE=-3.28D-08 OVMax= 8.31D-06

 Cycle   5  Pass 1  IDiag  1:
 E= -599.362052373081     Delta-E=       -0.000000000797 Rises=F Damp=F
 DIIS: error= 8.32D-07 at cycle   5 NSaved=   5.
 NSaved= 5 IEnMin= 5 EnMin= -599.362052373081     IErMin= 5 ErrMin= 8.32D-07
 ErrMax= 8.32D-07  0.00D+00 EMaxC= 1.00D-01 BMatC= 2.83D-11 BMatP= 1.09D-09
 IDIUse=1 WtCom= 1.00D+00 WtEn= 0.00D+00
 Coeff-Com: -0.244D-02 0.219D-01 0.530D-01 0.228D+00 0.699D+00
 Coeff:     -0.244D-02 0.219D-01 0.530D-01 0.228D+00 0.699D+00
 Gap=     0.324 Goal=   None    Shift=    0.000
 RMSDP=1.16D-07 MaxDP=2.01D-06 DE=-7.97D-10 OVMax= 2.52D-06

 Cycle   6  Pass 1  IDiag  1:
 E= -599.362052373100     Delta-E=       -0.000000000019 Rises=F Damp=F
 DIIS: error= 3.23D-07 at cycle   6 NSaved=   6.
 NSaved= 6 IEnMin= 6 EnMin= -599.362052373100     IErMin= 6 ErrMin= 3.23D-07
 ErrMax= 3.23D-07  0.00D+00 EMaxC= 1.00D-01 BMatC= 6.23D-12 BMatP= 2.83D-11
 IDIUse=1 WtCom= 1.00D+00 WtEn= 0.00D+00
 Coeff-Com: -0.773D-03 0.341D-02 0.139D-01 0.646D-01 0.368D+00 0.551D+00
 Coeff:     -0.773D-03 0.341D-02 0.139D-01 0.646D-01 0.368D+00 0.551D+00
 Gap=     0.324 Goal=   None    Shift=    0.000
 RMSDP=4.73D-08 MaxDP=7.37D-07 DE=-1.90D-11 OVMax= 9.68D-07

 Cycle   7  Pass 1  IDiag  1:
 E= -599.362052373107     Delta-E=       -0.000000000007 Rises=F Damp=F
 DIIS: error= 3.74D-08 at cycle   7 NSaved=   7.
 NSaved= 7 IEnMin= 7 EnMin= -599.362052373107     IErMin= 7 ErrMin= 3.74D-08
 ErrMax= 3.74D-08  0.00D+00 EMaxC= 1.00D-01 BMatC= 1.57D-13 BMatP= 6.23D-12
 IDIUse=1 WtCom= 1.00D+00 WtEn= 0.00D+00
 Coeff-Com:  0.128D-04-0.132D-02-0.570D-03 0.104D-02 0.700D-01 0.188D+00
 Coeff-Com:  0.742D+00
 Coeff:      0.128D-04-0.132D-02-0.570D-03 0.104D-02 0.700D-01 0.188D+00
 Coeff:      0.742D+00
 Gap=     0.324 Goal=   None    Shift=    0.000
 RMSDP=8.85D-09 MaxDP=1.42D-07 DE=-6.82D-12 OVMax= 1.72D-07

 SCF Done:  E(RB3LYP) =  -599.362052373     A.U. after    7 cycles
            NFock=  7  Conv=0.88D-08     -V/T= 2.0027
 KE= 5.977231093071D+02 PE=-1.624423769733D+03 EE= 3.270451500490D+02
 Leave Link  502 at Sat Sep 12 17:34:41 2026, MaxMem=  1073741824 cpu:               1.1 elap:               1.2
 (Enter /app1/ia32-64/Gaussian/Rev-C.02/g16/l701.exe)
 ... and contract with generalized density number  0.
 Compute integral first derivatives.
 Leave Link  701 at Sat Sep 12 17:34:41 2026, MaxMem=  1073741824 cpu:               0.1 elap:               0.1
 (Enter /app1/ia32-64/Gaussian/Rev-C.02/g16/l702.exe)
 L702 exits ... SP integral derivatives will be done elsewhere.
 Leave Link  702 at Sat Sep 12 17:34:41 2026, MaxMem=  1073741824 cpu:               0.0 elap:               0.0
 (Enter /app1/ia32-64/Gaussian/Rev-C.02/g16/l703.exe)
 Integral derivatives from FoFJK, PRISM(SPDF).
 Compute integral first derivatives, UseDBF=F ICtDFT=           0.
 Calling FoFJK, ICntrl=      2127 FMM=F ISym2X=1 I1Cent= 0 IOpClX= 0 NMat=1 NMatS=1 NMatT=0.
 FoFJK:  IHMeth= 1 ICntrl=    2127 DoSepK=F KAlg= 0 I1Cent=           0 FoldK=F
 IRaf=         0 NMat=       1 IRICut=       1 DoRegI=T DoRafI=F ISym2E= 1 IDoP0=0 IntGTp=1.
 FoFCou: FMM=F IPFlag=           0 FMFlag=      100000 FMFlg1=         800
         NFxFlg=           0 DoJE=F BraDBF=F KetDBF=F FulRan=T
         wScrn=  0.000000 ICntrl=      2127 IOpCl=  0 I1Cent=           0 NGrid=           0
         NMat0=    1 NMatS0=      1 NMatT0=    0 NMatD0=    1 NMtDS0=    0 NMtDT0=    0
 Petite list used in FoFCou.
 Leave Link  703 at Sat Sep 12 17:34:42 2026, MaxMem=  1073741824 cpu:               0.5 elap:               0.5
 (Enter /app1/ia32-64/Gaussian/Rev-C.02/g16/l716.exe)
 Dipole        =-3.37689823D-01 6.46008358D-01 0.00000000D+00
 ***** Axes restored to original set *****
 -------------------------------------------------------------------
 Center     Atomic                   Forces (Hartrees/Bohr)
 Number     Number              X              Y              Z
 -------------------------------------------------------------------
      1        6           0.000146434   -0.000000000    0.000324919
      2        9          -0.000004122   -0.000000000   -0.000239640
      3       17          -0.000032916   -0.000000000    0.000005146
      4        1          -0.000054698   -0.000009196   -0.000045212
      5        1          -0.000054698    0.000009196   -0.000045212
 -------------------------------------------------------------------
 Cartesian Forces:  Max     0.000324919 RMS     0.000114254
 Leave Link  716 at Sat Sep 12 17:34:42 2026, MaxMem=  1073741824 cpu:               0.0 elap:               0.0
 (Enter /app1/ia32-64/Gaussian/Rev-C.02/g16/l103.exe)

 GradGradGradGradGradGradGradGradGradGradGradGradGradGradGradGradGradGrad
 Berny optimization.
 Using GEDIIS/GDIIS optimizer.
 FormGI is forming the generalized inverse of G from B-inverse, IUseBI=4.
 Internal  Forces:  Max     0.000239714 RMS     0.000071545
 Search for a local minimum.
 Step number   5 out of a maximum of   24
 All quantities printed in internal units (Hartrees-Bohrs-Radians)
 RMS Force = .71545D-04 SwitMx=.10000D-02 MixMth= 2
 Mixed Optimization -- En-DIIS/RFO-DIIS
 Swapping is turned off.
 Update second derivatives using D2CorX and points    1    2    3    4    5
 DE= -1.28D-06 DEPred=-1.06D-06 R= 1.21D+00
 TightC=F SS=  1.41D+00  RLast= 4.29D-03 DXNew= 5.0454D-01 1.2877D-02
 Trust test= 1.21D+00 RLast= 4.29D-03 DXMaxT set to 3.00D-01
 The second derivative matrix:
                          R1        R2        R3        R4        A1
           R1           0.37964
           R2           0.05959   0.20443
           R3          -0.00647   0.00503   0.38285
           R4          -0.00647   0.00503   0.03473   0.38285
           A1          -0.00143   0.00313  -0.00516  -0.00516   0.21863
           A2           0.04013  -0.02307   0.00986   0.00986   0.01347
           A3           0.03272  -0.01901   0.00233   0.00233   0.00808
           A4          -0.03332   0.03443  -0.01266  -0.01266  -0.01448
           A5          -0.02547   0.02937  -0.00831  -0.00831  -0.01188
           A6          -0.02142  -0.02706   0.00178   0.00178   0.01854
           D1           0.00137  -0.00363  -0.01093  -0.01093  -0.00927
           D2          -0.00081   0.00289   0.00921   0.00921   0.00767
           D3           0.01188  -0.00539   0.01464   0.01464   0.01024
           D4           0.01269  -0.00828   0.00543   0.00543   0.00256
                          A2        A3        A4        A5        A6
           A2           0.14694
           A3          -0.01165   0.15190
           A4           0.01194   0.01069   0.14715
           A5           0.01107   0.00821  -0.01227   0.14959
           A6          -0.00392  -0.00075   0.01103   0.00995   0.13161
           D1           0.00173   0.00362  -0.00213  -0.00328   0.00686
           D2          -0.00144  -0.00306   0.00172   0.00272  -0.00560
           D3          -0.00233  -0.00638   0.00198   0.00497  -0.00599
           D4          -0.00089  -0.00332   0.00026   0.00225  -0.00039
                          D1        D2        D3        D4
           D1           0.00499
           D2          -0.00223   0.00424
           D3          -0.00376   0.00321   0.01001
           D4          -0.00152   0.00133   0.00445   0.00547
 ITU=  1  1  1  1  0
     Eigenvalues ---    0.04679   0.07071   0.09318   0.14182   0.15649
     Eigenvalues ---    0.20086   0.34813   0.40001   0.42126
 En-DIIS/RFO-DIIS/Sim-DIIS IScMMF=       -3 using points:     5    4    3
 RFO step:  Lambda=-2.61050626D-07.
 NNeg= 0 NGDIIS= 3 SimSw=  2.50D-01 Rises=F DC= -1.28D-06 SmlDif=  1.00D-05
 NRisDI= 0 DoIntr=F SqrtH=F CThrHd= 10.0 CDAdj=  3.0
 RMS Error=  0.3355176622D-03 NUsed= 3 OKEnD=F EnDIS=F
 InvSVX:  RCond= 7.86D-07 Info=           0 Equed=N FErr=  4.38D-15 BErr=  3.88D-17
 DidBck=F Rises=F RFO-DIIS coefs:    1.33936   -0.42295    0.08359
 Iteration  1 RMS(Cart)=  0.00024651 RMS(Int)=  0.00000046
 Iteration  2 RMS(Cart)=  0.00000008 RMS(Int)=  0.00000046
 ITry= 1 IFail=0 DXMaxC= 4.47D-04 DCOld= 1.00D+10 DXMaxT= 3.00D-01 DXLimC= 3.00D+00 Rises=F
 ClnCor:  largest displacement from symmetrization is 3.64D-06 for atom     5.
 Variable       Old X    -DE/DX   Delta X   Delta X   Delta X     New X
                                 (Linear)    (Quad)   (Total)
    R1        2.57256  -0.00024  -0.00032  -0.00041  -0.00073   2.57183
    R2        3.40709  -0.00003  -0.00031   0.00025  -0.00006   3.40703
    R3        2.07587   0.00005   0.00009   0.00004   0.00013   2.07600
    R4        2.07587   0.00005   0.00009   0.00004   0.00013   2.07600
    A1        1.92960  -0.00000  -0.00006   0.00020   0.00013   1.92974
    A2        1.91619   0.00002   0.00033  -0.00006   0.00027   1.91646
    A3        1.91619   0.00002   0.00033  -0.00006   0.00027   1.91646
    A4        1.86868   0.00002  -0.00004   0.00011   0.00007   1.86875
    A5        1.86868   0.00002  -0.00004   0.00011   0.00007   1.86875
    A6        1.96359  -0.00008  -0.00053  -0.00028  -0.00082   1.96278
    D1       -2.09539  -0.00002  -0.00008  -0.00027  -0.00035  -2.09574
    D2        2.09539   0.00002   0.00008   0.00027   0.00035   2.09574
    D3       -2.13953   0.00001  -0.00030   0.00032   0.00002  -2.13951
    D4        2.04826  -0.00001  -0.00038   0.00005  -0.00033   2.04793
         Item               Value     Threshold  Converged?
 Maximum Force            0.000240     0.000015     NO 
 RMS     Force            0.000072     0.000010     NO 
 Maximum Displacement     0.000447     0.000060     NO 
 RMS     Displacement     0.000246     0.000040     NO 
 Predicted change in Energy=-1.315895D-07
 Lowest energy point so far.  Saving SCF results.
 GradGradGradGradGradGradGradGradGradGradGradGradGradGradGradGradGradGrad

 Leave Link  103 at Sat Sep 12 17:34:42 2026, MaxMem=  1073741824 cpu:               0.0 elap:               0.0
 (Enter /app1/ia32-64/Gaussian/Rev-C.02/g16/l202.exe)
                          Input orientation:                          
 ---------------------------------------------------------------------
 Center     Atomic      Atomic             Coordinates (Angstroms)
 Number     Number       Type             X           Y           Z
 ---------------------------------------------------------------------
      1          6           0       -0.018073    0.000000    0.005709
      2          9           0       -0.019743    0.000000    1.366661
      3         17           0        1.670725    0.000000   -0.625556
      4          1           0       -0.501720   -0.913210   -0.367107
      5          1           0       -0.501720    0.913210   -0.367107
 ---------------------------------------------------------------------
                    Distance matrix (angstroms):
                    1          2          3          4          5
     1  C    0.000000
     2  F    1.360954   0.000000
     3  Cl   1.802924   2.612778   0.000000
     4  H    1.098571   2.017971   2.370710   0.000000
     5  H    1.098571   2.017971   2.370710   1.826420   0.000000
 Stoichiometry    CH2ClF
 Framework group  CS[SG(CClF),X(H2)]
 Deg. of freedom     6
 Full point group                 CS      NOp   2
 RotChk:  IX=0 Diff= 3.47D-04
 Largest Abelian subgroup         CS      NOp   2
 Largest concise Abelian subgroup CS      NOp   2
                         Standard orientation:                         
 ---------------------------------------------------------------------
 Center     Atomic      Atomic             Coordinates (Angstroms)
 Number     Number       Type             X           Y           Z
 ---------------------------------------------------------------------
      1          6           0        0.000000    0.815823   -0.000000
      2          9           0        1.360473    0.779641    0.000000
      3         17           0       -0.677989   -0.854765   -0.000000
      4          1           0       -0.359221    1.309652    0.913210
      5          1           0       -0.359221    1.309652   -0.913210
 ---------------------------------------------------------------------
 Rotational constants (GHZ):          41.8293306           5.5422539           5.0585165
 Leave Link  202 at Sat Sep 12 17:34:42 2026, MaxMem=  1073741824 cpu:               0.0 elap:               0.0
 (Enter /app1/ia32-64/Gaussian/Rev-C.02/g16/l301.exe)
 Standard basis: CC-pVDZ (5D, 7F)
 Ernie: Thresh=  0.10000D-02 Tol=  0.10000D-05 Strict=F.
 Ernie:  14 primitive shells out of 104 were deleted.
 There are    41 symmetry adapted cartesian basis functions of A'  symmetry.
 There are    18 symmetry adapted cartesian basis functions of A"  symmetry.
 There are    38 symmetry adapted basis functions of A'  symmetry.
 There are    18 symmetry adapted basis functions of A"  symmetry.
    56 basis functions,   151 primitive gaussians,    59 cartesian basis functions
    17 alpha electrons       17 beta electrons
       nuclear repulsion energy       100.3021147660 Hartrees.
 IExCor=  402 DFT=T Ex+Corr=B3LYP ExCW=0 ScaHFX=  0.200000
 ScaDFX=  0.800000  0.720000  1.000000  0.810000 ScalE2=  1.000000  1.000000
 IRadAn=      5 IRanWt=     -1 IRanGd=            0 ICorTp=0 IEmpDi=  4
 NAtoms=    5 NActive=    5 NUniq=    4 SFac= 1.56D+00 NAtFMM=   60 NAOKFM=F Big=F
 Integral buffers will be    131072 words long.
 Raffenetti 2 integral format.
 Two-electron integral symmetry is turned on.
 Leave Link  301 at Sat Sep 12 17:34:42 2026, MaxMem=  1073741824 cpu:               0.0 elap:               0.0
 (Enter /app1/ia32-64/Gaussian/Rev-C.02/g16/l302.exe)
 NPDir=0 NMtPBC=     1 NCelOv=     1 NCel=       1 NClECP=     1 NCelD=      1
         NCelK=      1 NCelE2=     1 NClLst=     1 CellRange=     0.0.
 One-electron integrals computed using PRISM.
 One-electron integral symmetry used in STVInt
 NBasis=    56 RedAO= T EigKep=  1.55D-02  NBF=    38    18
 NBsUse=    56 1.00D-06 EigRej= -1.00D+00 NBFU=    38    18
 Precomputing XC quadrature grid using
 IXCGrd= 4 IRadAn=           5 IRanWt=          -1 IRanGd=           0 AccXCQ= 0.00D+00.
 Generated NRdTot=       0 NPtTot=           0 NUsed=           0 NTot=          32
 NSgBfM=    59    59    59    59    59 MxSgAt=     5 MxSgA2=     5.
 Leave Link  302 at Sat Sep 12 17:34:42 2026, MaxMem=  1073741824 cpu:               0.1 elap:               0.1
 (Enter /app1/ia32-64/Gaussian/Rev-C.02/g16/l303.exe)
 DipDrv:  MaxL=1.
 Leave Link  303 at Sat Sep 12 17:34:42 2026, MaxMem=  1073741824 cpu:               0.0 elap:               0.0
 (Enter /app1/ia32-64/Gaussian/Rev-C.02/g16/l401.exe)
 Initial guess from the checkpoint file:  "ch2fcl_b3lyp_ccpvdz.chk"
 B after Tr=     0.000000   -0.000000    0.000000
         Rot=    1.000000    0.000000    0.000000   -0.000128 Ang=  -0.01 deg.
 Guess basis will be translated and rotated to current coordinates.
 JPrj=2 DoOrth=T DoCkMO=T.
 Initial guess orbital symmetries:
       Occupied  (A') (A') (A') (A') (A') (A') (A") (A') (A') (A')
                 (A") (A') (A') (A") (A') (A') (A")
       Virtual   (A') (A') (A") (A') (A') (A") (A') (A') (A") (A')
                 (A') (A") (A') (A') (A") (A') (A") (A') (A') (A")
                 (A') (A') (A") (A') (A") (A') (A") (A') (A') (A")
                 (A') (A') (A") (A') (A") (A') (A') (A") (A')
 The electronic state of the initial guess is 1-A'.
 Leave Link  401 at Sat Sep 12 17:34:43 2026, MaxMem=  1073741824 cpu:               0.1 elap:               0.1
 (Enter /app1/ia32-64/Gaussian/Rev-C.02/g16/l502.exe)
 Keep R1 ints in memory in symmetry-blocked form, NReq=2160176.
 FoFCou: FMM=F IPFlag=           0 FMFlag=           0 FMFlg1=           0
         NFxFlg=           0 DoJE=F BraDBF=F KetDBF=F FulRan=T
         wScrn=  0.000000 ICntrl=       600 IOpCl=  0 I1Cent=           0 NGrid=           0
         NMat0=    1 NMatS0=   1596 NMatT0=    0 NMatD0=    1 NMtDS0=    0 NMtDT0=    0
 Petite list used in FoFCou.
 Closed shell SCF:
 Using DIIS extrapolation, IDIIS=  1040.
 NGot=  1073741824 LenX=  1073079033 LenY=  1073075111
 Requested convergence on RMS density matrix=1.00D-08 within 128 cycles.
 Requested convergence on MAX density matrix=1.00D-06.
 Requested convergence on             energy=1.00D-06.
 No special actions if energy rises.

 Cycle   1  Pass 1  IDiag  1:
 E= -599.362052426093    
 DIIS: error= 3.26D-05 at cycle   1 NSaved=   1.
 NSaved= 1 IEnMin= 1 EnMin= -599.362052426093     IErMin= 1 ErrMin= 3.26D-05
 ErrMax= 3.26D-05  0.00D+00 EMaxC= 1.00D-01 BMatC= 6.95D-08 BMatP= 6.95D-08
 IDIUse=1 WtCom= 1.00D+00 WtEn= 0.00D+00
 Coeff-Com:  0.100D+01
 Coeff:      0.100D+01
 Gap=     0.324 Goal=   None    Shift=    0.000
 RMSDP=6.42D-06 MaxDP=6.26D-05              OVMax= 9.08D-05

 Cycle   2  Pass 1  IDiag  1:
 E= -599.362052515770     Delta-E=       -0.000000089677 Rises=F Damp=F
 DIIS: error= 1.18D-05 at cycle   2 NSaved=   2.
 NSaved= 2 IEnMin= 2 EnMin= -599.362052515770     IErMin= 2 ErrMin= 1.18D-05
 ErrMax= 1.18D-05  0.00D+00 EMaxC= 1.00D-01 BMatC= 7.40D-09 BMatP= 6.95D-08
 IDIUse=1 WtCom= 1.00D+00 WtEn= 0.00D+00
 Coeff-Com:  0.150D+00 0.850D+00
 Coeff:      0.150D+00 0.850D+00
 Gap=     0.324 Goal=   None    Shift=    0.000
 RMSDP=1.63D-06 MaxDP=3.18D-05 DE=-8.97D-08 OVMax= 2.45D-05

 Cycle   3  Pass 1  IDiag  1:
 E= -599.362052515862     Delta-E=       -0.000000000092 Rises=F Damp=F
 DIIS: error= 9.61D-06 at cycle   3 NSaved=   3.
 NSaved= 3 IEnMin= 3 EnMin= -599.362052515862     IErMin= 3 ErrMin= 9.61D-06
 ErrMax= 9.61D-06  0.00D+00 EMaxC= 1.00D-01 BMatC= 7.15D-09 BMatP= 7.40D-09
 IDIUse=1 WtCom= 1.00D+00 WtEn= 0.00D+00
 Coeff-Com: -0.102D-01 0.496D+00 0.514D+00
 Coeff:     -0.102D-01 0.496D+00 0.514D+00
 Gap=     0.324 Goal=   None    Shift=    0.000
 RMSDP=9.97D-07 MaxDP=1.88D-05 DE=-9.21D-11 OVMax= 1.86D-05

 Cycle   4  Pass 1  IDiag  1:
 E= -599.362052520227     Delta-E=       -0.000000004365 Rises=F Damp=F
 DIIS: error= 1.47D-06 at cycle   4 NSaved=   4.
 NSaved= 4 IEnMin= 4 EnMin= -599.362052520227     IErMin= 4 ErrMin= 1.47D-06
 ErrMax= 1.47D-06  0.00D+00 EMaxC= 1.00D-01 BMatC= 1.30D-10 BMatP= 7.15D-09
 IDIUse=1 WtCom= 1.00D+00 WtEn= 0.00D+00
 Coeff-Com: -0.109D-01 0.129D+00 0.205D+00 0.677D+00
 Coeff:     -0.109D-01 0.129D+00 0.205D+00 0.677D+00
 Gap=     0.324 Goal=   None    Shift=    0.000
 RMSDP=1.55D-07 MaxDP=2.25D-06 DE=-4.37D-09 OVMax= 2.99D-06

 Cycle   5  Pass 1  IDiag  1:
 E= -599.362052520317     Delta-E=       -0.000000000090 Rises=F Damp=F
 DIIS: error= 3.91D-07 at cycle   5 NSaved=   5.
 NSaved= 5 IEnMin= 5 EnMin= -599.362052520317     IErMin= 5 ErrMin= 3.91D-07
 ErrMax= 3.91D-07  0.00D+00 EMaxC= 1.00D-01 BMatC= 5.65D-12 BMatP= 1.30D-10
 IDIUse=1 WtCom= 1.00D+00 WtEn= 0.00D+00
 Coeff-Com: -0.314D-02 0.308D-01 0.650D-01 0.276D+00 0.631D+00
 Coeff:     -0.314D-02 0.308D-01 0.650D-01 0.276D+00 0.631D+00
 Gap=     0.324 Goal=   None    Shift=    0.000
 RMSDP=4.87D-08 MaxDP=8.34D-07 DE=-8.98D-11 OVMax= 8.73D-07

 Cycle   6  Pass 1  IDiag  1:
 E= -599.362052520325     Delta-E=       -0.000000000007 Rises=F Damp=F
 DIIS: error= 1.01D-07 at cycle   6 NSaved=   6.
 NSaved= 6 IEnMin= 6 EnMin= -599.362052520325     IErMin= 6 ErrMin= 1.01D-07
 ErrMax= 1.01D-07  0.00D+00 EMaxC= 1.00D-01 BMatC= 7.20D-13 BMatP= 5.65D-12
 IDIUse=1 WtCom= 1.00D+00 WtEn= 0.00D+00
 Coeff-Com: -0.791D-03 0.437D-02 0.145D-01 0.657D-01 0.301D+00 0.615D+00
 Coeff:     -0.791D-03 0.437D-02 0.145D-01 0.657D-01 0.301D+00 0.615D+00
 Gap=     0.324 Goal=   None    Shift=    0.000
 RMSDP=1.73D-08 MaxDP=3.02D-07 DE=-7.39D-12 OVMax= 3.52D-07

 Cycle   7  Pass 1  IDiag  1:
 E= -599.362052520323     Delta-E=        0.000000000002 Rises=F Damp=F
 DIIS: error= 2.16D-08 at cycle   7 NSaved=   7.
 NSaved= 7 IEnMin= 6 EnMin= -599.362052520325     IErMin= 7 ErrMin= 2.16D-08
 ErrMax= 2.16D-08  0.00D+00 EMaxC= 1.00D-01 BMatC= 4.03D-14 BMatP= 7.20D-13
 IDIUse=1 WtCom= 1.00D+00 WtEn= 0.00D+00
 Coeff-Com: -0.279D-04-0.996D-03 0.360D-03 0.325D-02 0.729D-01 0.257D+00
 Coeff-Com:  0.667D+00
 Coeff:     -0.279D-04-0.996D-03 0.360D-03 0.325D-02 0.729D-01 0.257D+00
 Coeff:      0.667D+00
 Gap=     0.324 Goal=   None    Shift=    0.000
 RMSDP=4.70D-09 MaxDP=8.87D-08 DE= 1.71D-12 OVMax= 8.41D-08

 SCF Done:  E(RB3LYP) =  -599.362052520     A.U. after    7 cycles
            NFock=  7  Conv=0.47D-08     -V/T= 2.0027
 KE= 5.977236885864D+02 PE=-1.624440777861D+03 EE= 3.270529219888D+02
 Leave Link  502 at Sat Sep 12 17:34:44 2026, MaxMem=  1073741824 cpu:               1.1 elap:               1.2
 (Enter /app1/ia32-64/Gaussian/Rev-C.02/g16/l701.exe)
 ... and contract with generalized density number  0.
 Compute integral first derivatives.
 Leave Link  701 at Sat Sep 12 17:34:44 2026, MaxMem=  1073741824 cpu:               0.1 elap:               0.1
 (Enter /app1/ia32-64/Gaussian/Rev-C.02/g16/l702.exe)
 L702 exits ... SP integral derivatives will be done elsewhere.
 Leave Link  702 at Sat Sep 12 17:34:44 2026, MaxMem=  1073741824 cpu:               0.0 elap:               0.0
 (Enter /app1/ia32-64/Gaussian/Rev-C.02/g16/l703.exe)
 Integral derivatives from FoFJK, PRISM(SPDF).
 Compute integral first derivatives, UseDBF=F ICtDFT=           0.
 Calling FoFJK, ICntrl=      2127 FMM=F ISym2X=1 I1Cent= 0 IOpClX= 0 NMat=1 NMatS=1 NMatT=0.
 FoFJK:  IHMeth= 1 ICntrl=    2127 DoSepK=F KAlg= 0 I1Cent=           0 FoldK=F
 IRaf=         0 NMat=       1 IRICut=       1 DoRegI=T DoRafI=F ISym2E= 1 IDoP0=0 IntGTp=1.
 FoFCou: FMM=F IPFlag=           0 FMFlag=      100000 FMFlg1=         800
         NFxFlg=           0 DoJE=F BraDBF=F KetDBF=F FulRan=T
         wScrn=  0.000000 ICntrl=      2127 IOpCl=  0 I1Cent=           0 NGrid=           0
         NMat0=    1 NMatS0=      1 NMatT0=    0 NMatD0=    1 NMtDS0=    0 NMtDT0=    0
 Petite list used in FoFCou.
 Leave Link  703 at Sat Sep 12 17:34:45 2026, MaxMem=  1073741824 cpu:               0.5 elap:               0.5
 (Enter /app1/ia32-64/Gaussian/Rev-C.02/g16/l716.exe)
 Dipole        =-3.37140629D-01 6.46003621D-01 0.00000000D+00
 ***** Axes restored to original set *****
 -------------------------------------------------------------------
 Center     Atomic                   Forces (Hartrees/Bohr)
 Number     Number              X              Y              Z
 -------------------------------------------------------------------
      1        6           0.000029129    0.000000000    0.000022461
      2        9          -0.000000122    0.000000000    0.000001894
      3       17          -0.000011444    0.000000000   -0.000000602
      4        1          -0.000008781   -0.000015726   -0.000011877
      5        1          -0.000008781    0.000015726   -0.000011877
 -------------------------------------------------------------------
 Cartesian Forces:  Max     0.000029129 RMS     0.000012699
 Leave Link  716 at Sat Sep 12 17:34:45 2026, MaxMem=  1073741824 cpu:               0.0 elap:               0.0
 (Enter /app1/ia32-64/Gaussian/Rev-C.02/g16/l103.exe)

 GradGradGradGradGradGradGradGradGradGradGradGradGradGradGradGradGradGrad
 Berny optimization.
 Using GEDIIS/GDIIS optimizer.
 FormGI is forming the generalized inverse of G from B-inverse, IUseBI=4.
 Internal  Forces:  Max     0.000020997 RMS     0.000008775
 Search for a local minimum.
 Step number   6 out of a maximum of   24
 All quantities printed in internal units (Hartrees-Bohrs-Radians)
 RMS Force = .87752D-05 SwitMx=.10000D-02 MixMth= 2
 Mixed Optimization -- En-DIIS/RFO-DIIS
 Swapping is turned off.
 Update second derivatives using D2CorX and points    1    2    3    4    5
                                                      6
 DE= -1.47D-07 DEPred=-1.32D-07 R= 1.12D+00
 Trust test= 1.12D+00 RLast= 1.33D-03 DXMaxT set to 3.00D-01
 The second derivative matrix:
                          R1        R2        R3        R4        A1
           R1           0.38068
           R2           0.05014   0.20705
           R3           0.02090   0.01729   0.37679
           R4           0.02090   0.01729   0.02866   0.37679
           A1           0.02307   0.00236  -0.00882  -0.00882   0.21310
           A2           0.02932  -0.01204   0.00574   0.00574   0.01372
           A3           0.02829  -0.01518  -0.00086  -0.00086   0.00738
           A4          -0.02491   0.02262  -0.01528  -0.01528  -0.01865
           A5          -0.02171   0.02360  -0.01163  -0.01163  -0.01512
           A6          -0.03206  -0.02679   0.01677   0.01677   0.02925
           D1           0.00706  -0.00766  -0.01009  -0.01009  -0.00922
           D2          -0.00583   0.00640   0.00849   0.00849   0.00764
           D3          -0.00020   0.00732   0.01294   0.01294   0.01175
           D4           0.00563   0.00093   0.00445   0.00445   0.00411
                          A2        A3        A4        A5        A6
           A2           0.14485
           A3          -0.01226   0.15190
           A4           0.01381   0.01152   0.14744
           A5           0.01154   0.00851  -0.01123   0.15059
           A6          -0.00339  -0.00060   0.00974   0.00940   0.12562
           D1           0.00198   0.00390  -0.00302  -0.00393   0.00795
           D2          -0.00166  -0.00327   0.00249   0.00325  -0.00651
           D3          -0.00478  -0.00739   0.00386   0.00535  -0.00562
           D4          -0.00312  -0.00411   0.00137   0.00209   0.00090
                          D1        D2        D3        D4
           D1           0.00590
           D2          -0.00299   0.00486
           D3          -0.00397   0.00335   0.00762
           D4          -0.00098   0.00083   0.00193   0.00344
 ITU=  0  1  1  1  1  0
     Eigenvalues ---    0.04535   0.06688   0.09202   0.14308   0.15620
     Eigenvalues ---    0.20935   0.34813   0.37248   0.43678
 En-DIIS/RFO-DIIS/Sim-DIIS IScMMF=       -3 using points:     6    5    4    3
 RFO step:  Lambda=-4.04479574D-09.
 NNeg= 0 NGDIIS= 4 SimSw=  2.50D-01 Rises=F DC= -1.47D-07 SmlDif=  1.00D-05
 NRisDI= 0 DoIntr=F SqrtH=F CThrHd= 10.0 CDAdj=  3.0
 RMS Error=  0.4502604545D-04 NUsed= 4 OKEnD=F EnDIS=F
 InvSVX:  RCond= 4.12D-08 Info=           0 Equed=N FErr=  4.78D-15 BErr=  1.05D-16
 DIIS inversion failure, remove point   4.
 InvSVX:  RCond= 1.53D-07 Info=           0 Equed=N FErr=  1.48D-15 BErr=  2.32D-17
 RFO-DIIS uses    3 points instead of    4
 DidBck=F Rises=F RFO-DIIS coefs:    1.08048   -0.07733   -0.00314    0.00000
 Iteration  1 RMS(Cart)=  0.00003005 RMS(Int)=  0.00000001
 Iteration  2 RMS(Cart)=  0.00000000 RMS(Int)=  0.00000001
 ITry= 1 IFail=0 DXMaxC= 4.95D-05 DCOld= 1.00D+10 DXMaxT= 3.00D-01 DXLimC= 3.00D+00 Rises=F
 ClnCor:  largest displacement from symmetrization is 9.31D-07 for atom     5.
 Variable       Old X    -DE/DX   Delta X   Delta X   Delta X     New X
                                 (Linear)    (Quad)   (Total)
    R1        2.57183   0.00000  -0.00006   0.00006  -0.00001   2.57182
    R2        3.40703  -0.00001  -0.00000  -0.00006  -0.00006   3.40697
    R3        2.07600   0.00002   0.00001   0.00005   0.00006   2.07605
    R4        2.07600   0.00002   0.00001   0.00005   0.00006   2.07605
    A1        1.92974   0.00000   0.00001   0.00002   0.00003   1.92977
    A2        1.91646   0.00000   0.00003   0.00001   0.00004   1.91650
    A3        1.91646   0.00000   0.00003   0.00001   0.00004   1.91650
    A4        1.86875  -0.00000   0.00000  -0.00002  -0.00002   1.86873
    A5        1.86875  -0.00000   0.00000  -0.00002  -0.00002   1.86873
    A6        1.96278  -0.00000  -0.00007   0.00000  -0.00007   1.96271
    D1       -2.09574  -0.00000  -0.00003  -0.00002  -0.00004  -2.09579
    D2        2.09574   0.00000   0.00003   0.00002   0.00004   2.09579
    D3       -2.13951  -0.00000  -0.00000  -0.00002  -0.00003  -2.13954
    D4        2.04793  -0.00000  -0.00003  -0.00004  -0.00007   2.04786
         Item               Value     Threshold  Converged?
 Maximum Force            0.000021     0.000015     NO 
 RMS     Force            0.000009     0.000010     YES
 Maximum Displacement     0.000049     0.000060     YES
 RMS     Displacement     0.000030     0.000040     YES
 Predicted change in Energy=-2.084901D-09
 Lowest energy point so far.  Saving SCF results.
 GradGradGradGradGradGradGradGradGradGradGradGradGradGradGradGradGradGrad

 Leave Link  103 at Sat Sep 12 17:34:45 2026, MaxMem=  1073741824 cpu:               0.0 elap:               0.0
 (Enter /app1/ia32-64/Gaussian/Rev-C.02/g16/l202.exe)
                          Input orientation:                          
 ---------------------------------------------------------------------
 Center     Atomic      Atomic             Coordinates (Angstroms)
 Number     Number       Type             X           Y           Z
 ---------------------------------------------------------------------
      1          6           0       -0.018055    0.000000    0.005735
      2          9           0       -0.019735   -0.000000    1.366684
      3         17           0        1.670700   -0.000000   -0.625554
      4          1           0       -0.501721   -0.913214   -0.367132
      5          1           0       -0.501721    0.913214   -0.367132
 ---------------------------------------------------------------------
                    Distance matrix (angstroms):
                    1          2          3          4          5
     1  C    0.000000
     2  F    1.360950   0.000000
     3  Cl   1.802892   2.612774   0.000000
     4  H    1.098601   2.018017   2.370687   0.000000
     5  H    1.098601   2.018017   2.370687   1.826429   0.000000
 Stoichiometry    CH2ClF
 Framework group  CS[SG(CClF),X(H2)]
 Deg. of freedom     6
 Full point group                 CS      NOp   2
 RotChk:  IX=0 Diff= 2.69D-05
 Largest Abelian subgroup         CS      NOp   2
 Largest concise Abelian subgroup CS      NOp   2
                         Standard orientation:                         
 ---------------------------------------------------------------------
 Center     Atomic      Atomic             Coordinates (Angstroms)
 Number     Number       Type             X           Y           Z
 ---------------------------------------------------------------------
      1          6           0        0.000000    0.815797   -0.000000
      2          9           0        1.360470    0.779652   -0.000000
      3         17           0       -0.677981   -0.854760    0.000000
      4          1           0       -0.359281    1.309640    0.913214
      5          1           0       -0.359281    1.309640   -0.913214
 ---------------------------------------------------------------------
 Rotational constants (GHZ):          41.8300410           5.5422995           5.0585665
 Leave Link  202 at Sat Sep 12 17:34:45 2026, MaxMem=  1073741824 cpu:               0.0 elap:               0.1
 (Enter /app1/ia32-64/Gaussian/Rev-C.02/g16/l301.exe)
 Standard basis: CC-pVDZ (5D, 7F)
 Ernie: Thresh=  0.10000D-02 Tol=  0.10000D-05 Strict=F.
 Ernie:  14 primitive shells out of 104 were deleted.
 There are    41 symmetry adapted cartesian basis functions of A'  symmetry.
 There are    18 symmetry adapted cartesian basis functions of A"  symmetry.
 There are    38 symmetry adapted basis functions of A'  symmetry.
 There are    18 symmetry adapted basis functions of A"  symmetry.
    56 basis functions,   151 primitive gaussians,    59 cartesian basis functions
    17 alpha electrons       17 beta electrons
       nuclear repulsion energy       100.3025619417 Hartrees.
 IExCor=  402 DFT=T Ex+Corr=B3LYP ExCW=0 ScaHFX=  0.200000
 ScaDFX=  0.800000  0.720000  1.000000  0.810000 ScalE2=  1.000000  1.000000
 IRadAn=      5 IRanWt=     -1 IRanGd=            0 ICorTp=0 IEmpDi=  4
 NAtoms=    5 NActive=    5 NUniq=    4 SFac= 1.56D+00 NAtFMM=   60 NAOKFM=F Big=F
 Integral buffers will be    131072 words long.
 Raffenetti 2 integral format.
 Two-electron integral symmetry is turned on.
 Leave Link  301 at Sat Sep 12 17:34:45 2026, MaxMem=  1073741824 cpu:               0.0 elap:               0.0
 (Enter /app1/ia32-64/Gaussian/Rev-C.02/g16/l302.exe)
 NPDir=0 NMtPBC=     1 NCelOv=     1 NCel=       1 NClECP=     1 NCelD=      1
         NCelK=      1 NCelE2=     1 NClLst=     1 CellRange=     0.0.
 One-electron integrals computed using PRISM.
 One-electron integral symmetry used in STVInt
 NBasis=    56 RedAO= T EigKep=  1.55D-02  NBF=    38    18
 NBsUse=    56 1.00D-06 EigRej= -1.00D+00 NBFU=    38    18
 Precomputing XC quadrature grid using
 IXCGrd= 4 IRadAn=           5 IRanWt=          -1 IRanGd=           0 AccXCQ= 0.00D+00.
 Generated NRdTot=       0 NPtTot=           0 NUsed=           0 NTot=          32
 NSgBfM=    59    59    59    59    59 MxSgAt=     5 MxSgA2=     5.
 Leave Link  302 at Sat Sep 12 17:34:45 2026, MaxMem=  1073741824 cpu:               0.1 elap:               0.1
 (Enter /app1/ia32-64/Gaussian/Rev-C.02/g16/l303.exe)
 DipDrv:  MaxL=1.
 Leave Link  303 at Sat Sep 12 17:34:45 2026, MaxMem=  1073741824 cpu:               0.0 elap:               0.0
 (Enter /app1/ia32-64/Gaussian/Rev-C.02/g16/l401.exe)
 Initial guess from the checkpoint file:  "ch2fcl_b3lyp_ccpvdz.chk"
 B after Tr=    -0.000000    0.000000   -0.000000
         Rot=    1.000000    0.000000    0.000000   -0.000004 Ang=  -0.00 deg.
 Guess basis will be translated and rotated to current coordinates.
 JPrj=2 DoOrth=T DoCkMO=T.
 Initial guess orbital symmetries:
       Occupied  (A') (A') (A') (A') (A') (A') (A") (A') (A') (A')
                 (A") (A') (A') (A") (A') (A') (A")
       Virtual   (A') (A') (A") (A') (A') (A") (A') (A') (A") (A')
                 (A') (A") (A') (A') (A") (A') (A") (A') (A') (A")
                 (A') (A') (A") (A') (A") (A') (A") (A') (A') (A")
                 (A') (A') (A") (A') (A") (A') (A') (A") (A')
 The electronic state of the initial guess is 1-A'.
 Leave Link  401 at Sat Sep 12 17:34:45 2026, MaxMem=  1073741824 cpu:               0.1 elap:               0.1
 (Enter /app1/ia32-64/Gaussian/Rev-C.02/g16/l502.exe)
 Keep R1 ints in memory in symmetry-blocked form, NReq=2160176.
 FoFCou: FMM=F IPFlag=           0 FMFlag=           0 FMFlg1=           0
         NFxFlg=           0 DoJE=F BraDBF=F KetDBF=F FulRan=T
         wScrn=  0.000000 ICntrl=       600 IOpCl=  0 I1Cent=           0 NGrid=           0
         NMat0=    1 NMatS0=   1596 NMatT0=    0 NMatD0=    1 NMtDS0=    0 NMtDT0=    0
 Petite list used in FoFCou.
 Closed shell SCF:
 Using DIIS extrapolation, IDIIS=  1040.
 NGot=  1073741824 LenX=  1073079033 LenY=  1073075111
 Requested convergence on RMS density matrix=1.00D-08 within 128 cycles.
 Requested convergence on MAX density matrix=1.00D-06.
 Requested convergence on             energy=1.00D-06.
 No special actions if energy rises.

 Cycle   1  Pass 1  IDiag  1:
 E= -599.362052521485    
 DIIS: error= 2.18D-06 at cycle   1 NSaved=   1.
 NSaved= 1 IEnMin= 1 EnMin= -599.362052521485     IErMin= 1 ErrMin= 2.18D-06
 ErrMax= 2.18D-06  0.00D+00 EMaxC= 1.00D-01 BMatC= 4.71D-10 BMatP= 4.71D-10
 IDIUse=1 WtCom= 1.00D+00 WtEn= 0.00D+00
 Coeff-Com:  0.100D+01
 Coeff:      0.100D+01
 Gap=     0.324 Goal=   None    Shift=    0.000
 RMSDP=6.77D-07 MaxDP=6.99D-06              OVMax= 9.21D-06

 Cycle   2  Pass 1  IDiag  1:
 E= -599.362052522309     Delta-E=       -0.000000000824 Rises=F Damp=F
 DIIS: error= 7.61D-07 at cycle   2 NSaved=   2.
 NSaved= 2 IEnMin= 2 EnMin= -599.362052522309     IErMin= 2 ErrMin= 7.61D-07
 ErrMax= 7.61D-07  0.00D+00 EMaxC= 1.00D-01 BMatC= 3.54D-11 BMatP= 4.71D-10
 IDIUse=1 WtCom= 1.00D+00 WtEn= 0.00D+00
 Coeff-Com:  0.666D-01 0.933D+00
 Coeff:      0.666D-01 0.933D+00
 Gap=     0.324 Goal=   None    Shift=    0.000
 RMSDP=1.35D-07 MaxDP=2.45D-06 DE=-8.24D-10 OVMax= 3.20D-06

 Cycle   3  Pass 1  IDiag  1:
 E= -599.362052522301     Delta-E=        0.000000000008 Rises=F Damp=F
 DIIS: error= 8.44D-07 at cycle   3 NSaved=   3.
 NSaved= 3 IEnMin= 2 EnMin= -599.362052522309     IErMin= 2 ErrMin= 7.61D-07
 ErrMax= 8.44D-07  0.00D+00 EMaxC= 1.00D-01 BMatC= 5.26D-11 BMatP= 3.54D-11
 IDIUse=1 WtCom= 1.00D+00 WtEn= 0.00D+00
 Coeff-Com: -0.248D-01 0.562D+00 0.463D+00
 Coeff:     -0.248D-01 0.562D+00 0.463D+00
 Gap=     0.324 Goal=   None    Shift=    0.000
 RMSDP=7.93D-08 MaxDP=1.45D-06 DE= 7.96D-12 OVMax= 1.63D-06

 Cycle   4  Pass 1  IDiag  1:
 E= -599.362052522336     Delta-E=       -0.000000000036 Rises=F Damp=F
 DIIS: error= 6.82D-08 at cycle   4 NSaved=   4.
 NSaved= 4 IEnMin= 4 EnMin= -599.362052522336     IErMin= 4 ErrMin= 6.82D-08
 ErrMax= 6.82D-08  0.00D+00 EMaxC= 1.00D-01 BMatC= 6.28D-13 BMatP= 3.54D-11
 IDIUse=1 WtCom= 1.00D+00 WtEn= 0.00D+00
 Coeff-Com: -0.106D-01 0.145D+00 0.162D+00 0.704D+00
 Coeff:     -0.106D-01 0.145D+00 0.162D+00 0.704D+00
 Gap=     0.324 Goal=   None    Shift=    0.000
 RMSDP=1.23D-08 MaxDP=1.09D-07 DE=-3.57D-11 OVMax= 1.89D-07

 Cycle   5  Pass 1  IDiag  1:
 E= -599.362052522338     Delta-E=       -0.000000000001 Rises=F Damp=F
 DIIS: error= 1.40D-08 at cycle   5 NSaved=   5.
 NSaved= 5 IEnMin= 5 EnMin= -599.362052522338     IErMin= 5 ErrMin= 1.40D-08
 ErrMax= 1.40D-08  0.00D+00 EMaxC= 1.00D-01 BMatC= 2.06D-14 BMatP= 6.28D-13
 IDIUse=1 WtCom= 1.00D+00 WtEn= 0.00D+00
 Coeff-Com: -0.156D-02 0.121D-01 0.218D-01 0.198D+00 0.770D+00
 Coeff:     -0.156D-02 0.121D-01 0.218D-01 0.198D+00 0.770D+00
 Gap=     0.324 Goal=   None    Shift=    0.000
 RMSDP=2.62D-09 MaxDP=3.53D-08 DE=-1.36D-12 OVMax= 4.53D-08

 SCF Done:  E(RB3LYP) =  -599.362052522     A.U. after    5 cycles
            NFock=  5  Conv=0.26D-08     -V/T= 2.0027
 KE= 5.977236505581D+02 PE=-1.624441605193D+03 EE= 3.270533401706D+02
 Leave Link  502 at Sat Sep 12 17:34:46 2026, MaxMem=  1073741824 cpu:               0.9 elap:               0.9
 (Enter /app1/ia32-64/Gaussian/Rev-C.02/g16/l701.exe)
 ... and contract with generalized density number  0.
 Compute integral first derivatives.
 Leave Link  701 at Sat Sep 12 17:34:46 2026, MaxMem=  1073741824 cpu:               0.0 elap:               0.1
 (Enter /app1/ia32-64/Gaussian/Rev-C.02/g16/l702.exe)
 L702 exits ... SP integral derivatives will be done elsewhere.
 Leave Link  702 at Sat Sep 12 17:34:46 2026, MaxMem=  1073741824 cpu:               0.0 elap:               0.0
 (Enter /app1/ia32-64/Gaussian/Rev-C.02/g16/l703.exe)
 Integral derivatives from FoFJK, PRISM(SPDF).
 Compute integral first derivatives, UseDBF=F ICtDFT=           0.
 Calling FoFJK, ICntrl=      2127 FMM=F ISym2X=1 I1Cent= 0 IOpClX= 0 NMat=1 NMatS=1 NMatT=0.
 FoFJK:  IHMeth= 1 ICntrl=    2127 DoSepK=F KAlg= 0 I1Cent=           0 FoldK=F
 IRaf=         0 NMat=       1 IRICut=       1 DoRegI=T DoRafI=F ISym2E= 1 IDoP0=0 IntGTp=1.
 FoFCou: FMM=F IPFlag=           0 FMFlag=      100000 FMFlg1=         800
         NFxFlg=           0 DoJE=F BraDBF=F KetDBF=F FulRan=T
         wScrn=  0.000000 ICntrl=      2127 IOpCl=  0 I1Cent=           0 NGrid=           0
         NMat0=    1 NMatS0=      1 NMatT0=    0 NMatD0=    1 NMtDS0=    0 NMtDT0=    0
 Petite list used in FoFCou.
 Leave Link  703 at Sat Sep 12 17:34:47 2026, MaxMem=  1073741824 cpu:               0.5 elap:               0.5
 (Enter /app1/ia32-64/Gaussian/Rev-C.02/g16/l716.exe)
 Dipole        =-3.37157494D-01 6.45945743D-01 2.22044605D-16
 ***** Axes restored to original set *****
 -------------------------------------------------------------------
 Center     Atomic                   Forces (Hartrees/Bohr)
 Number     Number              X              Y              Z
 -------------------------------------------------------------------
      1        6           0.000002873    0.000000000    0.000000976
      2        9          -0.000000294   -0.000000000   -0.000000450
      3       17           0.000000560   -0.000000000   -0.000001368
      4        1          -0.000001570   -0.000002499    0.000000421
      5        1          -0.000001570    0.000002499    0.000000421
 -------------------------------------------------------------------
 Cartesian Forces:  Max     0.000002873 RMS     0.000001401
 Leave Link  716 at Sat Sep 12 17:34:47 2026, MaxMem=  1073741824 cpu:               0.0 elap:               0.0
 (Enter /app1/ia32-64/Gaussian/Rev-C.02/g16/l103.exe)

 GradGradGradGradGradGradGradGradGradGradGradGradGradGradGradGradGradGrad
 Berny optimization.
 Using GEDIIS/GDIIS optimizer.
 FormGI is forming the generalized inverse of G from B-inverse, IUseBI=4.
 Internal  Forces:  Max     0.000002653 RMS     0.000001170
 Search for a local minimum.
 Step number   7 out of a maximum of   24
 All quantities printed in internal units (Hartrees-Bohrs-Radians)
 RMS Force = .11702D-05 SwitMx=.10000D-02 MixMth= 2
 Mixed Optimization -- En-DIIS/RFO-DIIS
 Swapping is turned off.
 Update second derivatives using D2CorX and points    1    2    3    4    5
                                                      6    7
 DE= -2.01D-09 DEPred=-2.08D-09 R= 9.66D-01
 Trust test= 9.66D-01 RLast= 1.68D-04 DXMaxT set to 3.00D-01
 The second derivative matrix:
                          R1        R2        R3        R4        A1
           R1           0.37755
           R2           0.04724   0.21002
           R3           0.02145   0.01354   0.34956
           R4           0.02145   0.01354   0.00144   0.34956
           A1           0.01917   0.00711  -0.03045  -0.03045   0.20274
           A2           0.03488  -0.00468  -0.01295  -0.01295   0.01164
           A3           0.03217  -0.01274  -0.00750  -0.00750   0.00678
           A4          -0.02873   0.01319   0.01174   0.01174  -0.01509
           A5          -0.02431   0.02005   0.00162   0.00162  -0.01294
           A6          -0.03321  -0.02666   0.01795   0.01795   0.03371
           D1           0.00551  -0.00441  -0.01574  -0.01574  -0.00876
           D2          -0.00448   0.00384   0.01278   0.01278   0.00719
           D3           0.00290   0.01503  -0.00637  -0.00637   0.00913
           D4           0.00737   0.01119  -0.01915  -0.01915   0.00194
                          A2        A3        A4        A5        A6
           A2           0.13317
           A3          -0.02180   0.14610
           A4           0.02433   0.02091   0.13820
           A5           0.02024   0.01424  -0.02002   0.14452
           A6           0.00132   0.00104   0.00386   0.00717   0.12439
           D1           0.00311   0.00418  -0.00544  -0.00484   0.00989
           D2          -0.00268  -0.00364   0.00454   0.00411  -0.00800
           D3          -0.00846  -0.01369   0.00604   0.01044  -0.00071
           D4          -0.00578  -0.01005   0.00150   0.00634   0.00730
                          D1        D2        D3        D4
           D1           0.00823
           D2          -0.00488   0.00640
           D3          -0.00295   0.00257   0.01204
           D4           0.00193  -0.00148   0.00712   0.01095
 ITU=  0  0  1  1  1  1  0
     Eigenvalues ---    0.04790   0.06747   0.09229   0.14445   0.15679
     Eigenvalues ---    0.21441   0.33582   0.34813   0.41363
 En-DIIS/RFO-DIIS/Sim-DIIS IScMMF=       -3 using points:     7    6    5    4    3
 RFO step:  Lambda=-7.80649862D-11.
 NNeg= 0 NGDIIS= 5 SimSw=  2.50D-01 Rises=F DC= -2.01D-09 SmlDif=  1.00D-05
 NRisDI= 0 DoIntr=F SqrtH=F CThrHd= 10.0 CDAdj=  3.0
 RMS Error=  0.6512348945D-05 NUsed= 5 OKEnD=F EnDIS=F
 InvSVX:  RCond= 7.65D-10 Info=           0 Equed=N FErr=  1.09D-14 BErr=  1.04D-16
 DIIS inversion failure, remove point   5.
 InvSVX:  RCond= 1.64D-09 Info=           0 Equed=N FErr=  1.99D-15 BErr=  9.13D-17
 DIIS inversion failure, remove point   4.
 InvSVX:  RCond= 2.19D-09 Info=           0 Equed=N FErr=  1.28D-15 BErr=  3.87D-17
 DIIS inversion failure, remove point   3.
 InvSVX:  RCond= 3.16D-08 Info=           0 Equed=N FErr=  9.37D-16 BErr=  1.83D-17
 DIIS inversion failure, remove point   2.
 Use linear search instead of GDIIS.
 RFO step:  Lambda= 0.00000000D+00 EMin= 4.78977384D-02
 Quartic linear search produced a step of  0.02952.
 Iteration  1 RMS(Cart)=  0.00000503 RMS(Int)=  0.00000000
 Iteration  2 RMS(Cart)=  0.00000000 RMS(Int)=  0.00000000
 ITry= 1 IFail=0 DXMaxC= 8.54D-06 DCOld= 1.00D+10 DXMaxT= 3.00D-01 DXLimC= 3.00D+00 Rises=F
 ClnCor:  largest displacement from symmetrization is 3.38D-07 for atom     5.
 Variable       Old X    -DE/DX   Delta X   Delta X   Delta X     New X
                                 (Linear)    (Quad)   (Total)
    R1        2.57182  -0.00000  -0.00000  -0.00000  -0.00000   2.57182
    R2        3.40697   0.00000  -0.00000   0.00000   0.00000   3.40697
    R3        2.07605   0.00000   0.00000   0.00001   0.00001   2.07606
    R4        2.07605   0.00000   0.00000   0.00001   0.00001   2.07606
    A1        1.92977   0.00000   0.00000   0.00000   0.00000   1.92977
    A2        1.91650  -0.00000   0.00000  -0.00001  -0.00001   1.91649
    A3        1.91650  -0.00000   0.00000  -0.00001  -0.00001   1.91649
    A4        1.86873  -0.00000  -0.00000   0.00000   0.00000   1.86873
    A5        1.86873   0.00000  -0.00000   0.00000   0.00000   1.86873
    A6        1.96271   0.00000  -0.00000   0.00001   0.00000   1.96272
    D1       -2.09579  -0.00000  -0.00000  -0.00000  -0.00000  -2.09579
    D2        2.09579   0.00000   0.00000   0.00000   0.00000   2.09579
    D3       -2.13954   0.00000  -0.00000   0.00001   0.00001  -2.13952
    D4        2.04786   0.00000  -0.00000   0.00001   0.00001   2.04787
         Item               Value     Threshold  Converged?
 Maximum Force            0.000003     0.000015     YES
 RMS     Force            0.000001     0.000010     YES
 Maximum Displacement     0.000009     0.000060     YES
 RMS     Displacement     0.000005     0.000040     YES
 Predicted change in Energy=-3.955546D-11
 Optimization completed.
    -- Stationary point found.
                           ----------------------------
                           !   Optimized Parameters   !
                           ! (Angstroms and Degrees)  !
 --------------------------                            --------------------------
 ! Name  Definition              Value          Derivative Info.                !
 --------------------------------------------------------------------------------
 ! R1    R(1,2)                  1.361          -DE/DX =    0.0                 !
 ! R2    R(1,3)                  1.8029         -DE/DX =    0.0                 !
 ! R3    R(1,4)                  1.0986         -DE/DX =    0.0                 !
 ! R4    R(1,5)                  1.0986         -DE/DX =    0.0                 !
 ! A1    A(2,1,3)              110.5675         -DE/DX =    0.0                 !
 ! A2    A(2,1,4)              109.8073         -DE/DX =    0.0                 !
 ! A3    A(2,1,5)              109.8073         -DE/DX =    0.0                 !
 ! A4    A(3,1,4)              107.0702         -DE/DX =    0.0                 !
 ! A5    A(3,1,5)              107.0702         -DE/DX =    0.0                 !
 ! A6    A(4,1,5)              112.4552         -DE/DX =    0.0                 !
 ! D1    D(2,1,4,3)           -120.0798         -DE/DX =    0.0                 !
 ! D2    D(2,1,5,3)            120.0798         -DE/DX =    0.0                 !
 ! D3    D(2,1,5,4)           -122.5864         -DE/DX =    0.0                 !
 ! D4    D(3,1,5,4)            117.3338         -DE/DX =    0.0                 !
 --------------------------------------------------------------------------------
 Lowest energy point so far.  Saving SCF results.
 Largest change from initial coordinates is atom    2       0.033 Angstoms.
 GradGradGradGradGradGradGradGradGradGradGradGradGradGradGradGradGradGrad

 Leave Link  103 at Sat Sep 12 17:34:47 2026, MaxMem=  1073741824 cpu:               0.0 elap:               0.0
 (Enter /app1/ia32-64/Gaussian/Rev-C.02/g16/l202.exe)
                          Input orientation:                          
 ---------------------------------------------------------------------
 Center     Atomic      Atomic             Coordinates (Angstroms)
 Number     Number       Type             X           Y           Z
 ---------------------------------------------------------------------
      1          6           0       -0.018055    0.000000    0.005735
      2          9           0       -0.019735   -0.000000    1.366684
      3         17           0        1.670700   -0.000000   -0.625554
      4          1           0       -0.501721   -0.913214   -0.367132
      5          1           0       -0.501721    0.913214   -0.367132
 ---------------------------------------------------------------------
                    Distance matrix (angstroms):
                    1          2          3          4          5
     1  C    0.000000
     2  F    1.360950   0.000000
     3  Cl   1.802892   2.612774   0.000000
     4  H    1.098601   2.018017   2.370687   0.000000
     5  H    1.098601   2.018017   2.370687   1.826429   0.000000
 Stoichiometry    CH2ClF
 Framework group  CS[SG(CClF),X(H2)]
 Deg. of freedom     6
 Full point group                 CS      NOp   2
 RotChk:  IX=0 Diff= 8.06D-16
 Largest Abelian subgroup         CS      NOp   2
 Largest concise Abelian subgroup CS      NOp   2
                         Standard orientation:                         
 ---------------------------------------------------------------------
 Center     Atomic      Atomic             Coordinates (Angstroms)
 Number     Number       Type             X           Y           Z
 ---------------------------------------------------------------------
      1          6           0       -0.000000    0.815797   -0.000000
      2          9           0        1.360470    0.779652   -0.000000
      3         17           0       -0.677981   -0.854760    0.000000
      4          1           0       -0.359281    1.309640    0.913214
      5          1           0       -0.359281    1.309640   -0.913214
 ---------------------------------------------------------------------
 Rotational constants (GHZ):          41.8300410           5.5422995           5.0585665
 Leave Link  202 at Sat Sep 12 17:34:47 2026, MaxMem=  1073741824 cpu:               0.0 elap:               0.1
 (Enter /app1/ia32-64/Gaussian/Rev-C.02/g16/l601.exe)
 Copying SCF densities to generalized density rwf, IOpCl= 0 IROHF=0.

 **********************************************************************

            Population analysis using the SCF Density.

 **********************************************************************

 Orbital symmetries:
       Occupied  (A') (A') (A') (A') (A') (A') (A") (A') (A') (A')
                 (A") (A') (A') (A") (A') (A') (A")
       Virtual   (A') (A') (A") (A') (A') (A") (A') (A') (A") (A')
                 (A') (A") (A') (A') (A") (A') (A") (A') (A') (A")
                 (A') (A') (A") (A') (A") (A') (A") (A') (A') (A")
                 (A') (A') (A") (A') (A") (A') (A') (A") (A')
 The electronic state is 1-A'.
 Alpha  occ. eigenvalues -- -101.54185 -24.71019 -10.33030  -9.46085  -7.22337
 Alpha  occ. eigenvalues --   -7.21381  -7.21321  -1.22937  -0.85797  -0.68594
 Alpha  occ. eigenvalues --   -0.52717  -0.52700  -0.48756  -0.38279  -0.37401
 Alpha  occ. eigenvalues --   -0.32210  -0.30751
 Alpha virt. eigenvalues --    0.01648   0.06973   0.10197   0.10917   0.40169
 Alpha virt. eigenvalues --    0.43443   0.45727   0.49218   0.55215   0.55487
 Alpha virt. eigenvalues --    0.56395   0.59112   0.68471   0.71475   0.71659
 Alpha virt. eigenvalues --    0.73874   0.77344   0.91730   1.05061   1.06545
 Alpha virt. eigenvalues --    1.15187   1.22744   1.26513   1.34065   1.53321
 Alpha virt. eigenvalues --    1.62158   1.62803   1.67137   1.77667   1.80729
 Alpha virt. eigenvalues --    1.99165   2.27263   2.35198   2.42781   3.57321
 Alpha virt. eigenvalues --    3.57513   3.76660   3.81925   4.01507
     Molecular Orbital Coefficients:
                           1         2         3         4         5
                           O         O         O         O         O
     Eigenvalues --  -101.54185 -24.71019 -10.33030  -9.46085  -7.22337
   1 1   C  1S         -0.00000  -0.00009   0.99646  -0.00014   0.00002
   2        2S         -0.00004  -0.00031   0.02874  -0.00129   0.00045
   3        3S          0.00016   0.00515  -0.01413   0.00737  -0.00070
   4        4PX         0.00000   0.00074   0.00050   0.00009  -0.00002
   5        4PY        -0.00000   0.00012   0.00043   0.00035   0.00011
   6        4PZ         0.00000   0.00000   0.00000   0.00000   0.00000
   7        5PX        -0.00003   0.00249   0.00181  -0.00105   0.00025
   8        5PY        -0.00011  -0.00056   0.00138  -0.00534   0.00059
   9        5PZ         0.00000   0.00000   0.00000   0.00000   0.00000
  10        6D 0       -0.00001  -0.00009   0.00087   0.00033   0.00035
  11        6D+1        0.00000   0.00000   0.00000   0.00000   0.00000
  12        6D-1        0.00000   0.00000   0.00000   0.00000   0.00000
  13        6D+2       -0.00001   0.00033   0.00071   0.00057   0.00036
  14        6D-2        0.00001   0.00000  -0.00061  -0.00043  -0.00037
  15 2   F  1S          0.00000   0.99662   0.00004   0.00003  -0.00000
  16        2S          0.00001   0.02076   0.00054   0.00022  -0.00009
  17        3S         -0.00003  -0.01025  -0.00100  -0.00134   0.00014
  18        4PX        -0.00000  -0.00110   0.00003   0.00009   0.00005
  19        4PY        -0.00000   0.00004   0.00006   0.00001   0.00006
  20        4PZ         0.00000   0.00000   0.00000   0.00000   0.00000
  21        5PX         0.00001   0.00256   0.00183   0.00049  -0.00010
  22        5PY         0.00001  -0.00003  -0.00030   0.00044  -0.00021
  23        5PZ         0.00000   0.00000   0.00000   0.00000   0.00000
  24        6D 0       -0.00000   0.00008   0.00036  -0.00004  -0.00000
  25        6D+1        0.00000   0.00000   0.00000   0.00000   0.00000
  26        6D-1        0.00000   0.00000   0.00000   0.00000   0.00000
  27        6D+2       -0.00000  -0.00016  -0.00067  -0.00010  -0.00003
  28        6D-2       -0.00000   0.00001   0.00001  -0.00006  -0.00001
  29 3   Cl 1S          1.00138   0.00001  -0.00004  -0.27778   0.00166
  30        2S         -0.00493   0.00013  -0.00023   1.03651  -0.00631
  31        3S          0.00035   0.00034  -0.00075   0.05300  -0.00003
  32        4S         -0.00031  -0.00116   0.00357  -0.02546   0.00068
  33        5PX         0.00002   0.00001   0.00002   0.00200   0.36856
  34        5PY         0.00004   0.00003   0.00003   0.00533   0.92610
  35        5PZ         0.00000   0.00000   0.00000   0.00000   0.00000
  36        6PX        -0.00000  -0.00003   0.00004   0.00050   0.00370
  37        6PY        -0.00001  -0.00013   0.00017   0.00131   0.00928
  38        6PZ         0.00000   0.00000   0.00000   0.00000   0.00000
  39        7PX        -0.00004  -0.00072   0.00062  -0.00230  -0.00060
  40        7PY        -0.00009  -0.00040   0.00161  -0.00542  -0.00150
  41        7PZ         0.00000   0.00000   0.00000   0.00000   0.00000
  42        8D 0        0.00001   0.00007   0.00009   0.00021  -0.00033
  43        8D+1        0.00000   0.00000   0.00000   0.00000   0.00000
  44        8D-1        0.00000   0.00000   0.00000   0.00000   0.00000
  45        8D+2        0.00001  -0.00002   0.00014   0.00027  -0.00042
  46        8D-2       -0.00002  -0.00027  -0.00019  -0.00033   0.00039
  47 4   H  1S         -0.00001  -0.00050  -0.00148  -0.00094  -0.00008
  48        2S          0.00001  -0.00027   0.00262   0.00122   0.00018
  49        3PX         0.00000  -0.00033  -0.00074   0.00004  -0.00006
  50        3PY         0.00000   0.00011   0.00077   0.00022  -0.00006
  51        3PZ        -0.00001   0.00002   0.00136  -0.00012   0.00006
  52 5   H  1S         -0.00001  -0.00050  -0.00148  -0.00094  -0.00008
  53        2S          0.00001  -0.00027   0.00262   0.00122   0.00018
  54        3PX         0.00000  -0.00033  -0.00074   0.00004  -0.00006
  55        3PY         0.00000   0.00011   0.00077   0.00022  -0.00006
  56        3PZ         0.00001  -0.00002  -0.00136   0.00012  -0.00006
                           6         7         8         9        10
                           O         O         O         O         O
     Eigenvalues --    -7.21381  -7.21321  -1.22937  -0.85797  -0.68594
   1 1   C  1S         -0.00000   0.00000  -0.06215  -0.08858  -0.15001
   2        2S         -0.00002   0.00000   0.12350   0.19310   0.34787
   3        3S          0.00014   0.00000   0.03532   0.10561   0.20126
   4        4PX        -0.00002   0.00000   0.11294  -0.06556  -0.00203
   5        4PY        -0.00000   0.00000  -0.00970  -0.09300   0.09758
   6        4PZ         0.00000  -0.00002   0.00000   0.00000   0.00000
   7        5PX         0.00027   0.00000   0.02322  -0.02625  -0.03271
   8        5PY         0.00004   0.00000  -0.00129  -0.02542   0.03581
   9        5PZ         0.00000   0.00011   0.00000   0.00000   0.00000
  10        6D 0        0.00002   0.00000  -0.01908  -0.00930   0.00011
  11        6D+1        0.00000   0.00006   0.00000   0.00000   0.00000
  12        6D-1        0.00000   0.00007   0.00000   0.00000   0.00000
  13        6D+2        0.00008   0.00000   0.02501  -0.01479   0.00649
  14        6D-2        0.00006   0.00000  -0.00073   0.01070   0.00081
  15 2   F  1S          0.00000   0.00000  -0.21673   0.04006   0.06106
  16        2S          0.00000   0.00000   0.46321  -0.09035  -0.13714
  17        3S         -0.00010   0.00000   0.48537  -0.10705  -0.19005
  18        4PX         0.00001   0.00000  -0.09828  -0.05081  -0.22474
  19        4PY         0.00004   0.00000   0.00267  -0.01794   0.04417
  20        4PZ         0.00000  -0.00000   0.00000   0.00000   0.00000
  21        5PX         0.00001   0.00000  -0.03372  -0.03255  -0.13504
  22        5PY        -0.00015   0.00000   0.00155  -0.00784   0.02587
  23        5PZ         0.00000  -0.00002   0.00000   0.00000   0.00000
  24        6D 0       -0.00000   0.00000  -0.00493  -0.00149  -0.00434
  25        6D+1        0.00000   0.00001   0.00000   0.00000   0.00000
  26        6D-1        0.00000  -0.00001   0.00000   0.00000   0.00000
  27        6D+2       -0.00001   0.00000   0.00814   0.00247   0.00804
  28        6D-2        0.00002   0.00000  -0.00027   0.00146  -0.00286
  29 3   Cl 1S         -0.00003   0.00000   0.00290   0.07328  -0.04111
  30        2S          0.00011   0.00000  -0.01226  -0.25915   0.14384
  31        3S         -0.00003   0.00000   0.01346   0.43644  -0.25254
  32        4S          0.00009   0.00000   0.02319   0.42172  -0.27611
  33        5PX         0.92646   0.00000  -0.00420  -0.01518  -0.01138
  34        5PY        -0.36870   0.00000  -0.00550  -0.04235  -0.03958
  35        5PZ         0.00000   0.99714   0.00000   0.00000   0.00000
  36        6PX         0.00816   0.00000   0.00878   0.03452   0.02560
  37        6PY        -0.00324   0.00000   0.01185   0.09523   0.08791
  38        6PZ         0.00000   0.00873   0.00000   0.00000   0.00000
  39        7PX        -0.00150   0.00000   0.00453   0.00812   0.01556
  40        7PY         0.00064   0.00000   0.00835   0.02736   0.04501
  41        7PZ         0.00000  -0.00159   0.00000   0.00000   0.00000
  42        8D 0        0.00000   0.00000  -0.00396  -0.01505  -0.00768
  43        8D+1        0.00000   0.00010   0.00000   0.00000   0.00000
  44        8D-1        0.00000   0.00028   0.00000   0.00000   0.00000
  45        8D+2        0.00019   0.00000  -0.00246  -0.01978  -0.01313
  46        8D-2        0.00022   0.00000   0.00621   0.01708   0.00884
  47 4   H  1S          0.00001  -0.00004   0.02631   0.06845   0.18881
  48        2S         -0.00008   0.00016   0.00368   0.00143   0.01533
  49        3PX        -0.00001  -0.00004   0.00436   0.00228   0.00759
  50        3PY         0.00004  -0.00008  -0.00355  -0.00624  -0.00716
  51        3PZ        -0.00000  -0.00001  -0.00567  -0.00827  -0.01829
  52 5   H  1S          0.00001   0.00004   0.02631   0.06845   0.18881
  53        2S         -0.00008  -0.00016   0.00368   0.00143   0.01533
  54        3PX        -0.00001   0.00004   0.00436   0.00228   0.00759
  55        3PY         0.00004   0.00008  -0.00355  -0.00624  -0.00716
  56        3PZ         0.00000  -0.00001   0.00567   0.00827   0.01829
                          11        12        13        14        15
                           O         O         O         O         O
     Eigenvalues --    -0.52717  -0.52700  -0.48756  -0.38279  -0.37401
   1 1   C  1S          0.00000  -0.01522   0.01853   0.00000   0.00795
   2        2S          0.00000   0.01425  -0.04236   0.00000  -0.01001
   3        3S          0.00000   0.05897  -0.08293   0.00000   0.00699
   4        4PX         0.00000  -0.34461   0.13106   0.00000   0.00710
   5        4PY         0.00000   0.14713   0.27731   0.00000  -0.24849
   6        4PZ         0.39603   0.00000   0.00000  -0.22331   0.00000
   7        5PX         0.00000  -0.06431   0.04452   0.00000   0.01513
   8        5PY         0.00000   0.05554   0.14071   0.00000  -0.03918
   9        5PZ         0.15850   0.00000   0.00000  -0.01886   0.00000
  10        6D 0        0.00000   0.02167   0.00329   0.00000  -0.01629
  11        6D+1        0.01200   0.00000   0.00000   0.04112   0.00000
  12        6D-1        0.00172   0.00000   0.00000   0.00230   0.00000
  13        6D+2        0.00000  -0.02097   0.02023   0.00000  -0.00748
  14        6D-2        0.00000   0.01387   0.01670   0.00000   0.03988
  15 2   F  1S          0.00000  -0.04154   0.00923   0.00000   0.00015
  16        2S          0.00000   0.08295  -0.01776   0.00000   0.00312
  17        3S          0.00000   0.16565  -0.03942   0.00000  -0.00910
  18        4PX         0.00000   0.47552  -0.14265   0.00000  -0.00745
  19        4PY         0.00000   0.13176   0.42298   0.00000   0.48486
  20        4PZ         0.35721   0.00000   0.00000   0.55783   0.00000
  21        5PX         0.00000   0.28422  -0.08752   0.00000   0.00144
  22        5PY         0.00000   0.08333   0.26773   0.00000   0.33849
  23        5PZ         0.22358   0.00000   0.00000   0.38409   0.00000
  24        6D 0        0.00000   0.00656  -0.00183   0.00000  -0.00052
  25        6D+1       -0.01310   0.00000   0.00000  -0.00694   0.00000
  26        6D-1        0.00071   0.00000   0.00000   0.00008   0.00000
  27        6D+2        0.00000  -0.01124   0.00244   0.00000  -0.00043
  28        6D-2        0.00000  -0.00426  -0.01258   0.00000  -0.00558
  29 3   Cl 1S          0.00000  -0.00286   0.02108   0.00000  -0.00453
  30        2S          0.00000   0.00931  -0.08114   0.00000   0.02301
  31        3S          0.00000  -0.01930   0.12157   0.00000  -0.01775
  32        4S          0.00000  -0.01938   0.23665   0.00000  -0.06732
  33        5PX         0.00000   0.03233   0.06528   0.00000  -0.04914
  34        5PY         0.00000  -0.02397   0.12179   0.00000  -0.16124
  35        5PZ        -0.04592   0.00000   0.00000   0.09112   0.00000
  36        6PX         0.00000  -0.07598  -0.15131   0.00000   0.12126
  37        6PY         0.00000   0.05389  -0.28509   0.00000   0.38750
  38        6PZ         0.10620   0.00000   0.00000  -0.21599   0.00000
  39        7PX         0.00000  -0.04610  -0.08436   0.00000   0.05459
  40        7PY         0.00000   0.03509  -0.13115   0.00000   0.25259
  41        7PZ         0.05797   0.00000   0.00000  -0.15619   0.00000
  42        8D 0        0.00000   0.00049   0.01790   0.00000  -0.01208
  43        8D+1        0.00883   0.00000   0.00000  -0.00377   0.00000
  44        8D-1        0.02286   0.00000   0.00000  -0.02276   0.00000
  45        8D+2        0.00000  -0.01693   0.01633   0.00000  -0.02060
  46        8D-2        0.00000  -0.01532  -0.02202   0.00000   0.01653
  47 4   H  1S          0.22143   0.14115   0.02932  -0.19388  -0.13147
  48        2S          0.05286   0.04951   0.01499  -0.10700  -0.07843
  49        3PX         0.00588  -0.00656   0.00385  -0.00296  -0.00245
  50        3PY        -0.00899  -0.00133   0.00422   0.00683  -0.00539
  51        3PZ        -0.00697  -0.01174  -0.00332   0.00305   0.00862
  52 5   H  1S         -0.22143   0.14115   0.02932   0.19388  -0.13147
  53        2S         -0.05286   0.04951   0.01499   0.10700  -0.07843
  54        3PX        -0.00588  -0.00656   0.00385   0.00296  -0.00245
  55        3PY         0.00899  -0.00133   0.00422  -0.00683  -0.00539
  56        3PZ        -0.00697   0.01174   0.00332   0.00305  -0.00862
                          16        17        18        19        20
                           O         O         V         V         V
     Eigenvalues --    -0.32210  -0.30751   0.01648   0.06973   0.10197
   1 1   C  1S         -0.00986   0.00000  -0.11230   0.04917   0.00000
   2        2S          0.02211   0.00000   0.23435  -0.04420   0.00000
   3        3S          0.03083   0.00000   1.28341  -1.15182   0.00000
   4        4PX        -0.01289   0.00000  -0.19836   0.12778   0.00000
   5        4PY         0.02487   0.00000  -0.37814  -0.40807   0.00000
   6        4PZ         0.00000  -0.17114   0.00000   0.00000  -0.43631
   7        5PX         0.04920   0.00000  -0.36072   0.37431   0.00000
   8        5PY         0.02405   0.00000  -0.44924  -0.83775   0.00000
   9        5PZ         0.00000  -0.02026   0.00000   0.00000  -1.19806
  10        6D 0        0.00652   0.00000   0.00868   0.01724   0.00000
  11        6D+1        0.00000   0.00466   0.00000   0.00000  -0.00227
  12        6D-1        0.00000  -0.02948   0.00000   0.00000   0.01902
  13        6D+2       -0.02579   0.00000   0.00943  -0.00134   0.00000
  14        6D-2       -0.01116   0.00000  -0.00148  -0.00746   0.00000
  15 2   F  1S          0.00854   0.00000  -0.00126   0.01853   0.00000
  16        2S         -0.01895   0.00000   0.00411  -0.03624   0.00000
  17        3S         -0.04947   0.00000   0.00614  -0.15133   0.00000
  18        4PX         0.11402   0.00000   0.05479   0.03373   0.00000
  19        4PY         0.10080   0.00000   0.11976   0.09793   0.00000
  20        4PZ         0.00000   0.12807   0.00000   0.00000   0.07949
  21        5PX         0.08055   0.00000   0.06210   0.03803   0.00000
  22        5PY         0.06830   0.00000   0.13088   0.13656   0.00000
  23        5PZ         0.00000   0.09017   0.00000   0.00000   0.14039
  24        6D 0        0.00046   0.00000  -0.00058   0.00343   0.00000
  25        6D+1        0.00000   0.00030   0.00000   0.00000   0.00710
  26        6D-1        0.00000  -0.00106   0.00000   0.00000   0.00261
  27        6D+2       -0.00244   0.00000   0.00320  -0.00068   0.00000
  28        6D-2       -0.00175   0.00000   0.00516   0.00624   0.00000
  29 3   Cl 1S          0.00051   0.00000  -0.01928  -0.01629   0.00000
  30        2S         -0.00110   0.00000   0.09766   0.05642   0.00000
  31        3S          0.00431   0.00000  -0.08491  -0.11178   0.00000
  32        4S          0.00936   0.00000  -0.59477  -0.34349   0.00000
  33        5PX        -0.24921   0.00000   0.05157   0.02935   0.00000
  34        5PY         0.09582   0.00000   0.14387   0.05348   0.00000
  35        5PZ         0.00000  -0.25344   0.00000   0.00000  -0.00323
  36        6PX         0.59886   0.00000  -0.12258  -0.06368   0.00000
  37        6PY        -0.22955   0.00000  -0.34966  -0.13007   0.00000
  38        6PZ         0.00000   0.60956   0.00000   0.00000  -0.00274
  39        7PX         0.44068   0.00000  -0.27460  -0.23289   0.00000
  40        7PY        -0.16568   0.00000  -0.69977  -0.30095   0.00000
  41        7PZ         0.00000   0.46339   0.00000   0.00000   0.12616
  42        8D 0        0.00163   0.00000  -0.05723  -0.00074   0.00000
  43        8D+1        0.00000   0.00297   0.00000   0.00000  -0.04186
  44        8D-1        0.00000   0.00329   0.00000   0.00000  -0.03629
  45        8D+2        0.00886   0.00000  -0.07678  -0.00302   0.00000
  46        8D-2        0.01410   0.00000   0.06282   0.04397   0.00000
  47 4   H  1S          0.03877  -0.16452  -0.04612   0.07686   0.08935
  48        2S          0.02003  -0.10255  -0.49395   1.16148   1.61958
  49        3PX        -0.00029  -0.00301  -0.00524   0.00274  -0.00084
  50        3PY         0.00035   0.00262  -0.01510  -0.01165   0.00511
  51        3PZ        -0.00122   0.00144   0.00398   0.00902   0.00085
  52 5   H  1S          0.03877   0.16452  -0.04612   0.07686  -0.08935
  53        2S          0.02003   0.10255  -0.49395   1.16148  -1.61958
  54        3PX        -0.00029   0.00301  -0.00524   0.00274   0.00084
  55        3PY         0.00035  -0.00262  -0.01510  -0.01165  -0.00511
  56        3PZ         0.00122   0.00144  -0.00398  -0.00902   0.00085
                          21        22        23        24        25
                           V         V         V         V         V
     Eigenvalues --     0.10917   0.40169   0.43443   0.45727   0.49218
   1 1   C  1S         -0.08329  -0.00342   0.00000   0.02791   0.02401
   2        2S          0.20243   0.16262   0.00000  -0.33493   0.11724
   3        3S          0.77619  -0.25829   0.00000   0.06481  -0.72516
   4        4PX         0.39663  -0.21215   0.00000  -0.90760   0.07103
   5        4PY         0.01572  -0.62994   0.00000   0.11274  -0.30513
   6        4PZ         0.00000   0.00000  -0.15340   0.00000   0.00000
   7        5PX         0.92686   0.26310   0.00000   1.33767  -0.01261
   8        5PY         0.12241   1.60037   0.00000  -0.21833   0.69621
   9        5PZ         0.00000   0.00000   0.96301   0.00000   0.00000
  10        6D 0        0.02470  -0.09884   0.00000  -0.04383   0.16788
  11        6D+1        0.00000   0.00000   0.05279   0.00000   0.00000
  12        6D-1        0.00000   0.00000  -0.20744   0.00000   0.00000
  13        6D+2       -0.04574  -0.02674   0.00000   0.14067   0.04018
  14        6D-2       -0.00013   0.00865   0.00000   0.00966  -0.11988
  15 2   F  1S          0.07849   0.00334   0.00000   0.00947  -0.01132
  16        2S         -0.13401  -0.00449   0.00000   0.08353   0.01108
  17        3S         -0.72942  -0.05871   0.00000  -0.62180   0.19207
  18        4PX         0.34698  -0.03397   0.00000  -0.33665   0.02753
  19        4PY        -0.03506  -0.10656   0.00000   0.02284   0.06064
  20        4PZ         0.00000   0.00000  -0.16365   0.00000   0.00000
  21        5PX         0.43627  -0.00427   0.00000   0.07357  -0.09431
  22        5PY        -0.03787  -0.20591   0.00000   0.01866  -0.02083
  23        5PZ         0.00000   0.00000  -0.14082   0.00000   0.00000
  24        6D 0       -0.00099  -0.00112   0.00000   0.02238  -0.00381
  25        6D+1        0.00000   0.00000  -0.00577   0.00000   0.00000
  26        6D-1        0.00000   0.00000  -0.00381   0.00000   0.00000
  27        6D+2        0.00201  -0.00665   0.00000  -0.03747   0.00599
  28        6D-2       -0.00108   0.00270   0.00000   0.00199   0.00904
  29 3   Cl 1S          0.00131   0.01416   0.00000  -0.00252   0.03594
  30        2S         -0.00625  -0.02592   0.00000  -0.01398  -0.02531
  31        3S          0.00701   0.14114   0.00000  -0.05121   0.40857
  32        4S          0.11822   0.63599   0.00000   0.17218   0.23408
  33        5PX         0.05530   0.02201   0.00000   0.05985   0.08272
  34        5PY        -0.01995   0.02572   0.00000   0.00379   0.20472
  35        5PZ         0.00000   0.00000   0.08695   0.00000   0.00000
  36        6PX        -0.14054  -0.06747   0.00000  -0.21409  -0.32615
  37        6PY         0.05665  -0.03762   0.00000  -0.01940  -0.81846
  38        6PZ         0.00000   0.00000  -0.28468   0.00000   0.00000
  39        7PX        -0.19451   0.29278   0.00000  -0.00105   0.54766
  40        7PY         0.12451   0.39172   0.00000   0.19704   1.33513
  41        7PZ         0.00000   0.00000  -0.07017   0.00000   0.00000
  42        8D 0       -0.00186  -0.17222   0.00000   0.01702   0.03436
  43        8D+1        0.00000   0.00000   0.15271   0.00000   0.00000
  44        8D-1        0.00000   0.00000   0.30420   0.00000   0.00000
  45        8D+2        0.05057  -0.19931   0.00000   0.04299   0.07143
  46        8D-2        0.08442   0.14083   0.00000   0.04558  -0.00425
  47 4   H  1S          0.01878  -0.33458  -0.62585   0.12903   0.34018
  48        2S         -0.24356  -0.02887   0.18916   0.12504  -0.38307
  49        3PX         0.02604  -0.01579   0.02178  -0.01452  -0.02625
  50        3PY         0.00079   0.01393  -0.05239  -0.02753  -0.01731
  51        3PZ         0.00823  -0.01912  -0.00956  -0.02351   0.07851
  52 5   H  1S          0.01878  -0.33458   0.62585   0.12903   0.34018
  53        2S         -0.24356  -0.02887  -0.18916   0.12504  -0.38307
  54        3PX         0.02604  -0.01579  -0.02178  -0.01452  -0.02625
  55        3PY         0.00079   0.01393   0.05239  -0.02753  -0.01731
  56        3PZ        -0.00823   0.01912  -0.00956   0.02351  -0.07851
                          26        27        28        29        30
                           V         V         V         V         V
     Eigenvalues --     0.55215   0.55487   0.56395   0.59112   0.68471
   1 1   C  1S          0.00000  -0.06399  -0.02156   0.00000  -0.00640
   2        2S          0.00000   0.39350   0.08835   0.00000  -0.10766
   3        3S          0.00000  -0.74074  -0.11644   0.00000   0.16975
   4        4PX         0.00000  -0.06066   0.14223   0.00000   0.00510
   5        4PY         0.00000   0.27738   0.05866   0.00000  -0.10635
   6        4PZ        -0.48321   0.00000   0.00000  -0.73294   0.00000
   7        5PX         0.00000   0.31383  -0.32904   0.00000  -0.36941
   8        5PY         0.00000  -0.13831   0.02563   0.00000   0.42811
   9        5PZ         1.24187   0.00000   0.00000   1.61495   0.00000
  10        6D 0        0.00000  -0.10127   0.00854   0.00000  -0.08312
  11        6D+1       -0.11286   0.00000   0.00000  -0.13709   0.00000
  12        6D-1        0.02880   0.00000   0.00000   0.20927   0.00000
  13        6D+2        0.00000   0.10385   0.08872   0.00000  -0.13011
  14        6D-2        0.00000  -0.00176   0.07099   0.00000  -0.27921
  15 2   F  1S          0.00000   0.02739   0.01181   0.00000  -0.01118
  16        2S          0.00000  -0.10525  -0.07956   0.00000  -0.00204
  17        3S          0.00000  -0.14851   0.09243   0.00000   0.20841
  18        4PX         0.00000   0.07033   0.06965   0.00000   0.05222
  19        4PY         0.00000  -0.02017   0.06802   0.00000   0.18839
  20        4PZ        -0.00257   0.00000   0.00000  -0.00221   0.00000
  21        5PX         0.00000   0.12383   0.05913   0.00000  -0.13174
  22        5PY         0.00000   0.01086  -0.02314   0.00000  -0.09695
  23        5PZ        -0.09500   0.00000   0.00000  -0.09450   0.00000
  24        6D 0        0.00000   0.00041  -0.00390   0.00000  -0.00724
  25        6D+1        0.00670   0.00000   0.00000   0.01063   0.00000
  26        6D-1        0.00109   0.00000   0.00000  -0.00281   0.00000
  27        6D+2        0.00000  -0.00264   0.00039   0.00000  -0.00162
  28        6D-2        0.00000  -0.00241   0.00166   0.00000   0.01207
  29 3   Cl 1S          0.00000  -0.02693  -0.01324   0.00000  -0.03609
  30        2S          0.00000  -0.05980  -0.02363   0.00000  -0.08906
  31        3S          0.00000  -0.42135  -0.19900   0.00000  -0.57880
  32        4S          0.00000   0.49120   0.16591   0.00000   0.75808
  33        5PX         0.00000  -0.03794   0.25999   0.00000   0.07384
  34        5PY         0.00000   0.17610  -0.05303   0.00000  -0.01797
  35        5PZ        -0.23698   0.00000   0.00000   0.15963   0.00000
  36        6PX         0.00000   0.14149  -1.04513   0.00000  -0.28877
  37        6PY         0.00000  -0.69977   0.21068   0.00000   0.06351
  38        6PZ         0.94889   0.00000   0.00000  -0.63785   0.00000
  39        7PX         0.00000  -0.11362   1.15848   0.00000   0.37584
  40        7PY         0.00000   0.79866  -0.26141   0.00000   0.04461
  41        7PZ        -1.14221   0.00000   0.00000   0.52466   0.00000
  42        8D 0        0.00000   0.08018   0.04153   0.00000  -0.19069
  43        8D+1        0.14345   0.00000   0.00000   0.07809   0.00000
  44        8D-1        0.23208   0.00000   0.00000  -0.09447   0.00000
  45        8D+2        0.00000   0.07301  -0.16563   0.00000   0.68006
  46        8D-2        0.00000  -0.14404  -0.28130   0.00000   0.25641
  47 4   H  1S          0.08827  -0.58441  -0.17693   0.27550  -0.08276
  48        2S         -0.74379   0.56781   0.12613  -1.49985  -0.21266
  49        3PX        -0.02184   0.01226   0.01737  -0.07636  -0.07627
  50        3PY         0.07981  -0.07048  -0.00605   0.06142   0.06625
  51        3PZ         0.06198  -0.12872  -0.02440   0.12734  -0.04376
  52 5   H  1S         -0.08827  -0.58441  -0.17693  -0.27550  -0.08276
  53        2S          0.74379   0.56781   0.12613   1.49985  -0.21266
  54        3PX         0.02184   0.01226   0.01737   0.07636  -0.07627
  55        3PY        -0.07981  -0.07048  -0.00605  -0.06142   0.06625
  56        3PZ         0.06198   0.12872   0.02440   0.12734   0.04376
                          31        32        33        34        35
                           V         V         V         V         V
     Eigenvalues --     0.71475   0.71659   0.73874   0.77344   0.91730
   1 1   C  1S         -0.01311   0.00000  -0.00518   0.00000  -0.04128
   2        2S         -0.59977   0.00000  -0.10360   0.00000  -1.53401
   3        3S          1.51240   0.00000   0.29522   0.00000   3.53546
   4        4PX         0.05158   0.00000  -0.01231   0.00000   0.36009
   5        4PY        -0.40917   0.00000  -0.20503   0.00000   0.27594
   6        4PZ         0.00000   0.00730   0.00000  -0.18906   0.00000
   7        5PX         0.18136   0.00000  -0.12871   0.00000  -0.34283
   8        5PY         1.06870   0.00000   0.61846   0.00000  -0.09136
   9        5PZ         0.00000  -0.30273   0.00000   1.09558   0.00000
  10        6D 0        0.12179   0.00000   0.07218   0.00000  -0.08446
  11        6D+1        0.00000  -0.23955   0.00000   0.18922   0.00000
  12        6D-1        0.00000  -0.07934   0.00000   0.18731   0.00000
  13        6D+2        0.15130   0.00000  -0.04040   0.00000   0.08783
  14        6D-2       -0.02661   0.00000  -0.08834   0.00000  -0.08203
  15 2   F  1S          0.01868   0.00000  -0.00702   0.00000   0.04301
  16        2S         -0.04619   0.00000   0.02433   0.00000  -0.19262
  17        3S         -0.26574   0.00000   0.06663   0.00000  -0.38309
  18        4PX        -0.04932   0.00000  -0.00465   0.00000  -0.14801
  19        4PY        -0.07477   0.00000  -0.02588   0.00000   0.10868
  20        4PZ         0.00000   0.18789   0.00000  -0.27730   0.00000
  21        5PX         0.18534   0.00000  -0.04860   0.00000   0.49386
  22        5PY        -0.05664   0.00000  -0.01339   0.00000  -0.07077
  23        5PZ         0.00000  -0.01705   0.00000   0.02243   0.00000
  24        6D 0        0.00558   0.00000  -0.00295   0.00000   0.00850
  25        6D+1        0.00000   0.01220   0.00000  -0.01424   0.00000
  26        6D-1        0.00000  -0.00278   0.00000   0.00365   0.00000
  27        6D+2       -0.01039   0.00000   0.00050   0.00000  -0.01925
  28        6D-2        0.00501   0.00000   0.00516   0.00000   0.00013
  29 3   Cl 1S         -0.06636   0.00000  -0.03590   0.00000   0.00388
  30        2S         -0.17917   0.00000  -0.10257   0.00000   0.05675
  31        3S         -1.08720   0.00000  -0.59625   0.00000   0.12566
  32        4S          1.57955   0.00000   0.91401   0.00000  -0.72680
  33        5PX        -0.06018   0.00000   0.00909   0.00000   0.01487
  34        5PY         0.00962   0.00000  -0.00838   0.00000   0.06966
  35        5PZ         0.00000   0.03879   0.00000  -0.04020   0.00000
  36        6PX         0.23856   0.00000  -0.03643   0.00000  -0.07649
  37        6PY        -0.04690   0.00000   0.03193   0.00000  -0.33271
  38        6PZ         0.00000  -0.15469   0.00000   0.16715   0.00000
  39        7PX        -0.12482   0.00000   0.15378   0.00000  -0.08599
  40        7PY         0.34439   0.00000   0.15619   0.00000  -0.05698
  41        7PZ         0.00000   0.20355   0.00000  -0.32170   0.00000
  42        8D 0       -0.07284   0.00000   0.87071   0.00000  -0.12099
  43        8D+1        0.00000  -0.58448   0.00000  -0.75253   0.00000
  44        8D-1        0.00000   0.65523   0.00000  -0.26592   0.00000
  45        8D+2        0.07637   0.00000  -0.09788   0.00000  -0.29708
  46        8D-2       -0.56323   0.00000   0.29588   0.00000   0.26406
  47 4   H  1S          0.07793   0.15177  -0.03723  -0.24973  -0.24305
  48        2S         -0.84191  -0.04844  -0.33111  -0.47514  -0.80860
  49        3PX        -0.00689  -0.09592  -0.03630   0.11902  -0.10800
  50        3PY         0.00402  -0.03970   0.01881   0.02861   0.06355
  51        3PZ         0.09685  -0.00758   0.00444   0.06144   0.04415
  52 5   H  1S          0.07793  -0.15177  -0.03723   0.24973  -0.24305
  53        2S         -0.84191   0.04844  -0.33111   0.47514  -0.80860
  54        3PX        -0.00689   0.09592  -0.03630  -0.11902  -0.10800
  55        3PY         0.00402   0.03970   0.01881  -0.02861   0.06355
  56        3PZ        -0.09685  -0.00758  -0.00444   0.06144  -0.04415
                          36        37        38        39        40
                           V         V         V         V         V
     Eigenvalues --     1.05061   1.06545   1.15187   1.22744   1.26513
   1 1   C  1S          0.02528   0.00000  -0.04686  -0.09827   0.00000
   2        2S         -0.38217   0.00000  -0.45526  -0.97857   0.00000
   3        3S         -0.69414   0.00000   1.63177   2.65074   0.00000
   4        4PX        -0.30609   0.00000   0.12444  -0.30522   0.00000
   5        4PY         0.19053   0.00000  -0.03162  -0.10287   0.00000
   6        4PZ         0.00000  -0.07398   0.00000   0.00000   0.07053
   7        5PX        -0.34420   0.00000  -0.58249  -0.40055   0.00000
   8        5PY         0.45574   0.00000   0.04495  -0.65247   0.00000
   9        5PZ         0.00000   0.59757   0.00000   0.00000  -0.44747
  10        6D 0        0.28332   0.00000   0.18323   0.18148   0.00000
  11        6D+1        0.00000  -0.32653   0.00000   0.00000  -0.38986
  12        6D-1        0.00000  -0.31956   0.00000   0.00000   0.08327
  13        6D+2       -0.36977   0.00000   0.24710  -0.19221   0.00000
  14        6D-2        0.20637   0.00000   0.21589  -0.24512   0.00000
  15 2   F  1S         -0.06116   0.00000   0.00925  -0.00491   0.00000
  16        2S          0.25328   0.00000  -0.04854  -0.00369   0.00000
  17        3S          0.44283   0.00000  -0.04669  -0.07350   0.00000
  18        4PX         0.43969   0.00000  -0.03296   0.41371   0.00000
  19        4PY        -0.08769   0.00000  -0.57467   0.13269   0.00000
  20        4PZ         0.00000   0.10118   0.00000   0.00000  -0.75890
  21        5PX        -1.09986   0.00000   0.19298  -0.64524   0.00000
  22        5PY         0.00413   0.00000   0.57561  -0.01094   0.00000
  23        5PZ         0.00000  -0.10275   0.00000   0.00000   1.10865
  24        6D 0        0.00807   0.00000   0.00650   0.03337   0.00000
  25        6D+1        0.00000   0.01530   0.00000   0.00000   0.04562
  26        6D-1        0.00000  -0.01096   0.00000   0.00000   0.00063
  27        6D+2       -0.02429   0.00000   0.00303  -0.03081   0.00000
  28        6D-2       -0.01472   0.00000  -0.01409   0.02227   0.00000
  29 3   Cl 1S         -0.04808   0.00000   0.02329   0.07066   0.00000
  30        2S         -0.15416   0.00000   0.09329   0.29304   0.00000
  31        3S         -0.82867   0.00000   0.42674   1.31307   0.00000
  32        4S          1.23097   0.00000  -0.82551  -2.41084   0.00000
  33        5PX         0.03091   0.00000   0.02334  -0.02041   0.00000
  34        5PY         0.06181   0.00000  -0.03036  -0.03953   0.00000
  35        5PZ         0.00000  -0.03922   0.00000   0.00000   0.00182
  36        6PX        -0.14716   0.00000  -0.13074   0.12550   0.00000
  37        6PY        -0.29474   0.00000   0.14902   0.21866   0.00000
  38        6PZ         0.00000   0.20197   0.00000   0.00000  -0.01004
  39        7PX         0.37526   0.00000   0.21744  -0.57087   0.00000
  40        7PY         0.64008   0.00000  -0.57465  -1.16093   0.00000
  41        7PZ         0.00000  -0.45088   0.00000   0.00000   0.07130
  42        8D 0       -0.21429   0.00000   0.02270   0.26510   0.00000
  43        8D+1        0.00000  -0.17851   0.00000   0.00000   0.04695
  44        8D-1        0.00000  -0.57502   0.00000   0.00000   0.03156
  45        8D+2       -0.16461   0.00000   0.44616   0.18508   0.00000
  46        8D-2        0.26832   0.00000   0.23959  -0.42674   0.00000
  47 4   H  1S         -0.05461  -0.13132  -0.33205  -0.48832  -0.08337
  48        2S         -0.12628  -0.16701  -0.25227  -0.15578   0.21530
  49        3PX         0.11994  -0.24412  -0.01369  -0.00374  -0.16809
  50        3PY        -0.02470  -0.28277  -0.21344   0.02291   0.10564
  51        3PZ         0.07724   0.07247   0.09820  -0.02386  -0.18180
  52 5   H  1S         -0.05461   0.13132  -0.33205  -0.48832   0.08337
  53        2S         -0.12628   0.16701  -0.25227  -0.15578  -0.21530
  54        3PX         0.11994   0.24412  -0.01369  -0.00374   0.16809
  55        3PY        -0.02470   0.28277  -0.21344   0.02291  -0.10564
  56        3PZ        -0.07724   0.07247  -0.09820   0.02386  -0.18180
                          41        42        43        44        45
                           V         V         V         V         V
     Eigenvalues --     1.34065   1.53321   1.62158   1.62803   1.67137
   1 1   C  1S          0.02313   0.00000   0.01782   0.00000   0.05716
   2        2S          0.12391   0.00000  -0.06453   0.00000   0.42021
   3        3S         -0.78539   0.00000  -0.09864   0.00000  -1.83946
   4        4PX        -0.04515   0.00000   0.08461   0.00000   0.09740
   5        4PY         0.11861   0.00000  -0.02377   0.00000   0.07393
   6        4PZ         0.00000  -0.10569   0.00000  -0.20355   0.00000
   7        5PX         0.28891   0.00000  -0.57833   0.00000   0.98744
   8        5PY        -0.73570   0.00000   0.57147   0.00000   1.46995
   9        5PZ         0.00000   1.47373   0.00000   0.91210   0.00000
  10        6D 0       -0.12795   0.00000   0.62993   0.00000   0.33438
  11        6D+1        0.00000   0.22837   0.00000  -0.58169   0.00000
  12        6D-1        0.00000  -0.09320   0.00000   0.72774   0.00000
  13        6D+2       -0.21978   0.00000  -0.08704   0.00000   0.59484
  14        6D-2       -0.62351   0.00000  -0.55903   0.00000  -0.39051
  15 2   F  1S         -0.00217   0.00000  -0.02397   0.00000   0.01093
  16        2S         -0.00941   0.00000   0.10861   0.00000   0.05954
  17        3S          0.04224   0.00000   0.31969   0.00000  -0.34467
  18        4PX         0.05230   0.00000  -0.43054   0.00000   0.31591
  19        4PY        -0.63477   0.00000   0.09201   0.00000   0.18868
  20        4PZ         0.00000   0.31903   0.00000   0.25665   0.00000
  21        5PX        -0.15453   0.00000   0.32568   0.00000  -0.23567
  22        5PY         1.12450   0.00000  -0.02758   0.00000  -0.39567
  23        5PZ         0.00000  -0.72812   0.00000  -0.32109   0.00000
  24        6D 0       -0.00173   0.00000   0.00929   0.00000   0.00889
  25        6D+1        0.00000  -0.05836   0.00000   0.04815   0.00000
  26        6D-1        0.00000  -0.00815   0.00000   0.03178   0.00000
  27        6D+2       -0.00505   0.00000   0.02609   0.00000   0.00918
  28        6D-2        0.07670   0.00000   0.05088   0.00000   0.00415
  29 3   Cl 1S         -0.00709   0.00000  -0.00400   0.00000  -0.02528
  30        2S         -0.02957   0.00000  -0.07353   0.00000  -0.25539
  31        3S         -0.13284   0.00000  -0.15375   0.00000  -0.68059
  32        4S          0.04886   0.00000   0.52150   0.00000   2.24765
  33        5PX         0.02507   0.00000  -0.00614   0.00000  -0.04501
  34        5PY        -0.00194   0.00000  -0.04540   0.00000  -0.09650
  35        5PZ         0.00000   0.00118   0.00000  -0.01552   0.00000
  36        6PX        -0.09451   0.00000   0.01332   0.00000   0.18229
  37        6PY        -0.03024   0.00000   0.16550   0.00000   0.36585
  38        6PZ         0.00000   0.01921   0.00000   0.06835   0.00000
  39        7PX        -0.03802   0.00000   0.24686   0.00000   0.27006
  40        7PY         0.15364   0.00000   0.17831   0.00000   0.96827
  41        7PZ         0.00000  -0.29559   0.00000  -0.21175   0.00000
  42        8D 0       -0.10465   0.00000  -0.17761   0.00000  -0.30420
  43        8D+1        0.00000  -0.13910   0.00000   0.05396   0.00000
  44        8D-1        0.00000  -0.22565   0.00000  -0.04537   0.00000
  45        8D+2       -0.31473   0.00000  -0.16740   0.00000  -0.43201
  46        8D-2       -0.13246   0.00000   0.17642   0.00000   0.33775
  47 4   H  1S          0.17136  -0.27398  -0.41467  -0.70044   0.05084
  48        2S          0.25124  -0.53563  -0.01636   0.00714   0.06830
  49        3PX        -0.09185  -0.36838   0.42155   0.22262  -0.36771
  50        3PY         0.07982   0.41174  -0.05838  -0.20257  -0.32355
  51        3PZ        -0.06662  -0.46680  -0.07859  -0.19472  -0.07587
  52 5   H  1S          0.17136   0.27398  -0.41467   0.70044   0.05084
  53        2S          0.25124   0.53563  -0.01636  -0.00714   0.06830
  54        3PX        -0.09185   0.36838   0.42155  -0.22262  -0.36771
  55        3PY         0.07982  -0.41174  -0.05838   0.20257  -0.32355
  56        3PZ         0.06662  -0.46680   0.07859  -0.19472   0.07587
                          46        47        48        49        50
                           V         V         V         V         V
     Eigenvalues --     1.77667   1.80729   1.99165   2.27263   2.35198
   1 1   C  1S         -0.01908   0.00000   0.01740   0.02869   0.00000
   2        2S         -0.05852   0.00000   0.00818   0.92835   0.00000
   3        3S          0.53617   0.00000  -0.67969  -0.90812   0.00000
   4        4PX         0.04104   0.00000  -0.02770  -0.62892   0.00000
   5        4PY         0.01137   0.00000  -0.12971   0.47537   0.00000
   6        4PZ         0.00000  -0.03506   0.00000   0.00000   1.31022
   7        5PX         0.16194   0.00000  -0.08205  -0.93026   0.00000
   8        5PY        -0.29479   0.00000  -0.50896   0.78487   0.00000
   9        5PZ         0.00000  -0.02786   0.00000   0.00000   1.36261
  10        6D 0       -0.25819   0.00000   0.89349   0.60583   0.00000
  11        6D+1        0.00000   0.78612   0.00000   0.00000  -0.75039
  12        6D-1        0.00000   0.68570   0.00000   0.00000   1.09999
  13        6D+2        1.05356   0.00000   0.11687  -0.17842   0.00000
  14        6D-2       -0.22709   0.00000   0.46838  -0.37947   0.00000
  15 2   F  1S          0.01702   0.00000   0.00188   0.00843   0.00000
  16        2S          0.28578   0.00000  -0.40639  -1.33620   0.00000
  17        3S         -0.92865   0.00000   0.73826   2.35785   0.00000
  18        4PX         0.34695   0.00000  -0.02535   0.03726   0.00000
  19        4PY        -0.06218   0.00000  -0.10128   0.03536   0.00000
  20        4PZ         0.00000  -0.06564   0.00000   0.00000   0.07980
  21        5PX         0.18863   0.00000  -0.27834  -0.68590   0.00000
  22        5PY         0.18052   0.00000   0.11108  -0.05293   0.00000
  23        5PZ         0.00000  -0.13578   0.00000   0.00000  -0.16959
  24        6D 0        0.00038   0.00000   0.06255   0.05312   0.00000
  25        6D+1        0.00000  -0.10163   0.00000   0.00000   0.04251
  26        6D-1        0.00000   0.03264   0.00000   0.00000   0.06009
  27        6D+2        0.03735   0.00000  -0.01136  -0.06312   0.00000
  28        6D-2        0.03283   0.00000  -0.04878   0.03585   0.00000
  29 3   Cl 1S          0.00371   0.00000   0.00308  -0.01068   0.00000
  30        2S         -0.00993   0.00000   0.00868  -0.10324   0.00000
  31        3S          0.03513   0.00000   0.05257  -0.27992   0.00000
  32        4S         -0.08936   0.00000  -0.17627   0.85532   0.00000
  33        5PX        -0.01850   0.00000  -0.01194  -0.01225   0.00000
  34        5PY        -0.01604   0.00000   0.00057  -0.02985   0.00000
  35        5PZ         0.00000  -0.02903   0.00000   0.00000   0.00057
  36        6PX         0.05463   0.00000   0.03937   0.04189   0.00000
  37        6PY         0.05558   0.00000  -0.00459   0.11987   0.00000
  38        6PZ         0.00000   0.09301   0.00000   0.00000  -0.00612
  39        7PX         0.00591   0.00000  -0.01302   0.32831   0.00000
  40        7PY         0.00368   0.00000  -0.02718   0.30714   0.00000
  41        7PZ         0.00000   0.03493   0.00000   0.00000  -0.11762
  42        8D 0       -0.05004   0.00000  -0.07240  -0.08809   0.00000
  43        8D+1        0.00000   0.09521   0.00000   0.00000   0.00641
  44        8D-1        0.00000   0.25923   0.00000   0.00000  -0.02975
  45        8D+2       -0.02987   0.00000   0.03822  -0.06742   0.00000
  46        8D-2        0.22562   0.00000   0.08344   0.18200   0.00000
  47 4   H  1S          0.05748  -0.02431  -0.00279  -0.55983  -1.28150
  48        2S         -0.05200   0.03649   0.24318  -0.29058  -0.78481
  49        3PX         0.45330  -0.55021  -0.27298  -0.05544  -0.40493
  50        3PY         0.40350  -0.48020   0.59740   0.27510   0.52454
  51        3PZ         0.05583  -0.00400  -0.52550   0.73166   0.96785
  52 5   H  1S          0.05748   0.02431  -0.00279  -0.55983   1.28150
  53        2S         -0.05200  -0.03649   0.24318  -0.29058   0.78481
  54        3PX         0.45330   0.55021  -0.27298  -0.05544   0.40493
  55        3PY         0.40350   0.48020   0.59740   0.27510  -0.52454
  56        3PZ        -0.05583  -0.00400   0.52550  -0.73166   0.96785
                          51        52        53        54        55
                           V         V         V         V         V
     Eigenvalues --     2.42781   3.57321   3.57513   3.76660   3.81925
   1 1   C  1S         -0.06864   0.00000   0.00473  -0.00128   0.00000
   2        2S          0.59854   0.00000  -0.04459  -0.02922   0.00000
   3        3S          2.37975   0.00000  -0.15729   0.00134   0.00000
   4        4PX        -0.12982   0.00000   0.01962   0.04949   0.00000
   5        4PY         0.53552   0.00000  -0.03723   0.01156   0.00000
   6        4PZ         0.00000  -0.10871   0.00000   0.00000  -0.05767
   7        5PX         0.38879   0.00000  -0.00295   0.05901   0.00000
   8        5PY         0.20053   0.00000   0.02531   0.11133   0.00000
   9        5PZ         0.00000  -0.11705   0.00000   0.00000   0.18153
  10        6D 0        0.73682   0.00000  -0.17141   0.01469   0.00000
  11        6D+1        0.00000   0.04712   0.00000   0.00000   0.49120
  12        6D-1        0.00000  -0.19843   0.00000   0.00000  -0.03022
  13        6D+2       -0.00941   0.00000  -0.06012   0.01510   0.00000
  14        6D-2       -0.18643   0.00000   0.01052   0.39575   0.00000
  15 2   F  1S         -0.01218   0.00000  -0.00034   0.00065   0.00000
  16        2S          1.20453   0.00000  -0.03657   0.02787   0.00000
  17        3S         -1.87236   0.00000   0.06441  -0.05900   0.00000
  18        4PX        -0.21997   0.00000   0.00922  -0.00030   0.00000
  19        4PY         0.00828   0.00000   0.00095   0.05774   0.00000
  20        4PZ         0.00000  -0.00749   0.00000   0.00000   0.05721
  21        5PX         0.65276   0.00000  -0.02295   0.00973   0.00000
  22        5PY        -0.03318   0.00000  -0.00251  -0.21139   0.00000
  23        5PZ         0.00000   0.02262   0.00000   0.00000  -0.23967
  24        6D 0       -0.00787   0.00000   0.86292   0.01720   0.00000
  25        6D+1        0.00000   0.00623   0.00000   0.00000   1.02051
  26        6D-1        0.00000   0.99850   0.00000   0.00000  -0.00796
  27        6D+2        0.11005   0.00000   0.50147   0.02861   0.00000
  28        6D-2       -0.00734   0.00000  -0.02774   1.01891   0.00000
  29 3   Cl 1S          0.00508   0.00000  -0.00311  -0.00098   0.00000
  30        2S          0.02571   0.00000  -0.00759   0.00325   0.00000
  31        3S          0.10346   0.00000  -0.05133  -0.00897   0.00000
  32        4S         -0.25581   0.00000   0.07573   0.02793   0.00000
  33        5PX        -0.00305   0.00000   0.00693  -0.00503   0.00000
  34        5PY        -0.00147   0.00000   0.00705   0.00791   0.00000
  35        5PZ         0.00000   0.00386   0.00000   0.00000  -0.00428
  36        6PX         0.02407   0.00000  -0.03063   0.01614   0.00000
  37        6PY         0.00585   0.00000  -0.03179  -0.02779   0.00000
  38        6PZ         0.00000  -0.01391   0.00000   0.00000   0.01743
  39        7PX        -0.17263   0.00000   0.03838   0.00199   0.00000
  40        7PY        -0.09391   0.00000   0.04079  -0.00681   0.00000
  41        7PZ         0.00000   0.01728   0.00000   0.00000  -0.03213
  42        8D 0       -0.02497   0.00000   0.01344   0.01958   0.00000
  43        8D+1        0.00000  -0.01070   0.00000   0.00000  -0.01383
  44        8D-1        0.00000  -0.01721   0.00000   0.00000   0.01727
  45        8D+2       -0.03383   0.00000   0.00674   0.07078   0.00000
  46        8D-2       -0.06563   0.00000  -0.01387   0.01576   0.00000
  47 4   H  1S         -0.91029   0.14800   0.09747   0.05166   0.10904
  48        2S         -0.45910   0.03105   0.00747  -0.00979  -0.07986
  49        3PX        -0.50289   0.04343   0.03686  -0.07833  -0.12843
  50        3PY         0.48343  -0.00913  -0.08587  -0.00814  -0.07202
  51        3PZ         0.60731  -0.08061  -0.01425  -0.07288  -0.11149
  52 5   H  1S         -0.91029  -0.14800   0.09747   0.05166  -0.10904
  53        2S         -0.45910  -0.03105   0.00747  -0.00979   0.07986
  54        3PX        -0.50289  -0.04343   0.03686  -0.07833   0.12843
  55        3PY         0.48343   0.00913  -0.08587  -0.00814   0.07202
  56        3PZ        -0.60731  -0.08061   0.01425   0.07288  -0.11149
                          56
                           V
     Eigenvalues --     4.01507
   1 1   C  1S          0.03374
   2        2S         -0.28524
   3        3S         -0.39215
   4        4PX        -0.48769
   5        4PY         0.02428
   6        4PZ         0.00000
   7        5PX        -0.30454
   8        5PY         0.02085
   9        5PZ         0.00000
  10        6D 0        0.26548
  11        6D+1        0.00000
  12        6D-1        0.00000
  13        6D+2       -0.40788
  14        6D-2        0.04324
  15 2   F  1S         -0.01850
  16        2S         -0.47961
  17        3S          1.10603
  18        4PX         0.02953
  19        4PY        -0.00023
  20        4PZ         0.00000
  21        5PX        -0.62959
  22        5PY         0.00787
  23        5PZ         0.00000
  24        6D 0       -0.53528
  25        6D+1        0.00000
  26        6D-1        0.00000
  27        6D+2        0.91487
  28        6D-2       -0.01744
  29 3   Cl 1S         -0.00071
  30        2S          0.00199
  31        3S         -0.00697
  32        4S         -0.00063
  33        5PX         0.00290
  34        5PY         0.00372
  35        5PZ         0.00000
  36        6PX        -0.00948
  37        6PY        -0.01597
  38        6PZ         0.00000
  39        7PX         0.03067
  40        7PY        -0.00925
  41        7PZ         0.00000
  42        8D 0        0.00391
  43        8D+1        0.00000
  44        8D-1        0.00000
  45        8D+2        0.01037
  46        8D-2       -0.02129
  47 4   H  1S         -0.05878
  48        2S          0.02506
  49        3PX        -0.03404
  50        3PY         0.00613
  51        3PZ        -0.00204
  52 5   H  1S         -0.05878
  53        2S          0.02506
  54        3PX        -0.03404
  55        3PY         0.00613
  56        3PZ         0.00204
     Density Matrix:
                           1         2         3         4         5
   1 1   C  1S          2.05577
   2        2S         -0.09924   0.35394
   3        3S         -0.11700   0.19863   0.12909
   4        4PX         0.01491  -0.02045  -0.06977   0.30642
   5        4PY        -0.00938   0.01638  -0.01164  -0.02328   0.35836
   6        4PZ         0.00000  -0.00000   0.00000  -0.00000  -0.00000
   7        5PX         0.01807  -0.03079  -0.02884   0.06377  -0.00126
   8        5PY        -0.00091   0.00638  -0.00702   0.00033   0.12679
   9        5PZ        -0.00000   0.00000   0.00000  -0.00000  -0.00000
  10        6D 0        0.00480  -0.00723  -0.00110  -0.01756   0.01874
  11        6D+1        0.00000  -0.00000   0.00000  -0.00000   0.00000
  12        6D-1        0.00000  -0.00000  -0.00000   0.00000   0.00000
  13        6D+2        0.00076   0.00172  -0.00628   0.02788   0.01102
  14        6D-2       -0.00222   0.00217   0.00128  -0.00590  -0.00885
  15 2   F  1S          0.00286   0.00221   0.02209  -0.02214   0.00217
  16        2S         -0.00211  -0.01291  -0.02976   0.05577  -0.00688
  17        3S          0.00799  -0.04768  -0.04203   0.00107   0.00234
  18        4PX         0.06657  -0.16942  -0.02147  -0.38280   0.03769
  19        4PY         0.00709  -0.01286  -0.02745   0.02712   0.04931
  20        4PZ        -0.00000   0.00000   0.00000   0.00000  -0.00000
  21        5PX         0.04066  -0.09570  -0.01060  -0.22368   0.01874
  22        5PY         0.00426  -0.00873  -0.01676   0.01706   0.01465
  23        5PZ        -0.00000   0.00000   0.00000   0.00000  -0.00000
  24        6D 0        0.00260  -0.00442  -0.00132  -0.00592   0.00072
  25        6D+1        0.00000  -0.00000  -0.00000  -0.00000   0.00000
  26        6D-1       -0.00000   0.00000   0.00000   0.00000   0.00000
  27        6D+2       -0.00472   0.00790   0.00246   0.00992  -0.00091
  28        6D-2        0.00026  -0.00051   0.00054  -0.00064  -0.00637
  29 3   Cl 1S         -0.00022  -0.00071  -0.00851  -0.00141  -0.00878
  30        2S          0.00062   0.00089   0.03240   0.00348   0.02348
  31        3S         -0.00001  -0.01431  -0.03013  -0.00834  -0.05990
  32        4S          0.02047  -0.04207  -0.06282   0.02526   0.02668
  33        5PX         0.01223  -0.02917  -0.03139   0.00159   0.05851
  34        5PY         0.02094  -0.04796  -0.04596   0.04813   0.14586
  35        5PZ        -0.00000   0.00000   0.00000  -0.00000  -0.00000
  36        6PX        -0.02799   0.06803   0.07298  -0.00365  -0.13836
  37        6PY        -0.04591   0.10867   0.10124  -0.11063  -0.34703
  38        6PZ         0.00000  -0.00000  -0.00000   0.00000   0.00000
  39        7PX        -0.01498   0.03936   0.04473  -0.00103  -0.06413
  40        7PY        -0.01482   0.04378   0.04357  -0.05259  -0.19265
  41        7PZ         0.00000  -0.00000  -0.00000   0.00000   0.00000
  42        8D 0        0.00607  -0.01332  -0.00953   0.00525   0.01754
  43        8D+1        0.00000  -0.00000  -0.00000  -0.00000   0.00000
  44        8D-1        0.00000  -0.00000  -0.00000   0.00000   0.00000
  45        8D+2        0.00865  -0.01843  -0.01408   0.01752   0.01592
  46        8D-2       -0.00720   0.01599   0.01055   0.00378  -0.02580
  47 4   H  1S         -0.08107   0.17010   0.10468  -0.09627   0.14867
  48        2S         -0.00267   0.01487   0.01017  -0.03124   0.06552
  49        3PX        -0.00438   0.00672   0.00240   0.00616   0.00238
  50        3PY         0.00534  -0.00850  -0.00538   0.00199   0.00448
  51        3PZ         0.01076  -0.01752  -0.01034   0.00726  -0.01156
  52 5   H  1S         -0.08107   0.17010   0.10468  -0.09627   0.14867
  53        2S         -0.00267   0.01487   0.01017  -0.03124   0.06552
  54        3PX        -0.00438   0.00672   0.00240   0.00616   0.00238
  55        3PY         0.00534  -0.00850  -0.00538   0.00199   0.00448
  56        3PZ        -0.01076   0.01752   0.01034  -0.00726   0.01156
                           6         7         8         9        10
   6        4PZ         0.47199
   7        5PX         0.00000   0.02215
   8        5PY         0.00000   0.00551   0.05392
   9        5PZ         0.14090  -0.00000  -0.00000   0.05178
  10        6D 0       -0.00000  -0.00275   0.00545  -0.00000   0.00248
  11        6D+1       -0.01046  -0.00000  -0.00000   0.00206   0.00000
  12        6D-1        0.01043   0.00000   0.00000   0.00165  -0.00000
  13        6D+2       -0.00000   0.00325   0.00386  -0.00000  -0.00154
  14        6D-2       -0.00000  -0.00084   0.00210   0.00000  -0.00091
  15 2   F  1S          0.00000  -0.00418   0.00016   0.00000   0.00573
  16        2S         -0.00000   0.02132  -0.00339  -0.00000  -0.01290
  17        3S         -0.00000   0.01059  -0.00375   0.00000  -0.01000
  18        4PX        -0.00000  -0.05007   0.00548   0.00000   0.02604
  19        4PY        -0.00000   0.04348   0.10460   0.00000  -0.00575
  20        4PZ        -0.01004  -0.00000  -0.00000   0.08700  -0.00000
  21        5PX        -0.00000  -0.02738   0.00277   0.00000   0.01461
  22        5PY        -0.00000   0.02887   0.06360   0.00000  -0.00468
  23        5PZ        -0.02532  -0.00000  -0.00000   0.05273  -0.00000
  24        6D 0        0.00000  -0.00084   0.00006   0.00000   0.00051
  25        6D+1       -0.00738   0.00000   0.00000  -0.00390   0.00000
  26        6D-1        0.00089   0.00000   0.00000   0.00027  -0.00000
  27        6D+2       -0.00000   0.00113  -0.00022  -0.00000  -0.00084
  28        6D-2       -0.00000  -0.00082  -0.00394  -0.00000  -0.00013
  29 3   Cl 1S          0.00000   0.00166   0.00206  -0.00000  -0.00152
  30        2S         -0.00000  -0.00638  -0.01122   0.00000   0.00510
  31        3S          0.00000   0.00732  -0.00721   0.00000  -0.00806
  32        4S         -0.00000   0.01951   0.02918  -0.00000  -0.00577
  33        5PX         0.00000  -0.02232   0.01429  -0.00000   0.00092
  34        5PY         0.00000   0.02327   0.04920  -0.00000   0.00790
  35        5PZ         0.00964  -0.00000  -0.00000  -0.00750  -0.00000
  36        6PX        -0.00000   0.05582  -0.03166   0.00000  -0.00140
  37        6PY        -0.00000  -0.05338  -0.11423   0.00000  -0.01736
  38        6PZ        -0.02806   0.00000   0.00000   0.01711   0.00000
  39        7PX        -0.00000   0.04220  -0.01123   0.00000   0.00109
  40        7PY        -0.00000  -0.02883  -0.05890   0.00000  -0.01055
  41        7PZ        -0.04293   0.00000   0.00000   0.00549   0.00000
  42        8D 0       -0.00000   0.00244   0.00634  -0.00000   0.00098
  43        8D+1        0.00766  -0.00000   0.00000   0.00282   0.00000
  44        8D-1        0.02714   0.00000   0.00000   0.00797   0.00000
  45        8D+2       -0.00000   0.00566   0.00483  -0.00000   0.00062
  46        8D-2        0.00000   0.00071  -0.00876   0.00000  -0.00172
  47 4   H  1S          0.31829  -0.03044   0.04608   0.08418   0.00886
  48        2S          0.12476  -0.00634   0.01784   0.02495   0.00490
  49        3PX         0.00701   0.00067   0.00095   0.00210  -0.00039
  50        3PY        -0.01107   0.00105   0.00129  -0.00321   0.00040
  51        3PZ        -0.00738   0.00273  -0.00384  -0.00238  -0.00046
  52 5   H  1S         -0.31829  -0.03044   0.04608  -0.08418   0.00886
  53        2S         -0.12476  -0.00634   0.01784  -0.02495   0.00490
  54        3PX        -0.00701   0.00067   0.00095  -0.00210  -0.00039
  55        3PY         0.01107   0.00105   0.00129   0.00321   0.00040
  56        3PZ        -0.00738  -0.00273   0.00384  -0.00238   0.00046
                          11        12        13        14        15
  11        6D+1        0.00371
  12        6D-1       -0.00004   0.00176
  13        6D+2       -0.00000   0.00000   0.00492
  14        6D-2       -0.00000  -0.00000  -0.00027   0.00461
  15 2   F  1S          0.00000  -0.00000  -0.00891   0.00025   2.09487
  16        2S         -0.00000   0.00000   0.02081  -0.00046  -0.19094
  17        3S         -0.00000   0.00000   0.01912   0.00035  -0.27794
  18        4PX         0.00000  -0.00000  -0.03781   0.00398  -0.03131
  19        4PY        -0.00000  -0.00000   0.00038   0.05389   0.00160
  20        4PZ         0.05564  -0.00375   0.00000   0.00000   0.00000
  21        5PX         0.00000  -0.00000  -0.02211   0.00241  -0.02323
  22        5PY        -0.00000  -0.00000  -0.00060   0.03660   0.00109
  23        5PZ         0.03779  -0.00278   0.00000   0.00000   0.00000
  24        6D 0        0.00000  -0.00000  -0.00062   0.00004   0.00108
  25        6D+1       -0.00088  -0.00009  -0.00000   0.00000   0.00000
  26        6D-1        0.00001   0.00007   0.00000   0.00000  -0.00000
  27        6D+2       -0.00000   0.00000   0.00114  -0.00015  -0.00173
  28        6D-2        0.00000  -0.00000  -0.00025  -0.00092  -0.00001
  29 3   Cl 1S         -0.00000  -0.00000  -0.00187   0.00201   0.00024
  30        2S          0.00000   0.00000   0.00613  -0.00678   0.00016
  31        3S         -0.00000  -0.00000  -0.00968   0.01088   0.00289
  32        4S         -0.00000  -0.00000  -0.00401   0.01035  -0.00617
  33        5PX        -0.00000   0.00000   0.01538   0.00422  -0.00651
  34        5PY         0.00000   0.00000   0.00449  -0.01330   0.00004
  35        5PZ         0.00415   0.01534  -0.00000   0.00000   0.00000
  36        6PX         0.00000  -0.00000  -0.03589  -0.01009   0.01580
  37        6PY        -0.00000  -0.00000  -0.00883   0.03016  -0.00059
  38        6PZ        -0.00954  -0.03657   0.00000  -0.00000  -0.00000
  39        7PX         0.00000  -0.00000  -0.02485  -0.00939   0.00897
  40        7PY        -0.00000  -0.00000  -0.00182   0.02109  -0.00481
  41        7PZ        -0.00714  -0.02784   0.00000  -0.00000   0.00000
  42        8D 0        0.00000   0.00000   0.00095  -0.00072   0.00002
  43        8D+1       -0.00007  -0.00016   0.00000   0.00000  -0.00000
  44        8D-1       -0.00129  -0.00022   0.00000  -0.00000  -0.00000
  45        8D+2        0.00000   0.00000   0.00151  -0.00221  -0.00030
  46        8D-2       -0.00000  -0.00000  -0.00130   0.00021   0.00032
  47 4   H  1S         -0.01217   0.00957  -0.00303  -0.00472   0.00557
  48        2S         -0.00849   0.00574  -0.00098  -0.00478  -0.00366
  49        3PX        -0.00013   0.00018   0.00073  -0.00019  -0.00083
  50        3PY         0.00037  -0.00015   0.00020  -0.00047   0.00058
  51        3PZ         0.00010  -0.00009   0.00002   0.00008   0.00051
  52 5   H  1S          0.01217  -0.00957  -0.00303  -0.00472   0.00557
  53        2S          0.00849  -0.00574  -0.00098  -0.00478  -0.00366
  54        3PX         0.00013  -0.00018   0.00073  -0.00019  -0.00083
  55        3PY        -0.00037   0.00015   0.00020  -0.00047   0.00058
  56        3PZ         0.00010  -0.00009  -0.00002  -0.00008  -0.00051
                          16        17        18        19        20
  16        2S          0.49905
  17        3S          0.55139   0.62958
  18        4PX         0.05932   0.15856   0.64455
  19        4PY        -0.00036  -0.01884   0.00184   0.88761
  20        4PZ        -0.00000  -0.00000  -0.00000  -0.00000   0.91034
  21        5PX         0.05901   0.11857   0.38425   0.00756   0.00000
  22        5PY        -0.00041  -0.01306   0.00226   0.59303   0.00000
  23        5PZ        -0.00000  -0.00000  -0.00000  -0.00000   0.61134
  24        6D 0       -0.00197  -0.00054   0.00994  -0.00058   0.00000
  25        6D+1       -0.00000  -0.00000   0.00000   0.00000  -0.01702
  26        6D-1        0.00000   0.00000  -0.00000   0.00000   0.00033
  27        6D+2        0.00302   0.00065  -0.01740  -0.00114  -0.00000
  28        6D-2        0.00005   0.00037   0.00042  -0.01784  -0.00000
  29 3   Cl 1S         -0.00066   0.00086   0.00186   0.00653  -0.00000
  30        2S          0.00109  -0.00469  -0.00430  -0.02214   0.00000
  31        3S         -0.00488  -0.00062   0.01473   0.04351  -0.00000
  32        4S          0.00856   0.01247  -0.00613   0.09230  -0.00000
  33        5PX         0.01408   0.03452  -0.03644  -0.03452   0.00000
  34        5PY         0.00031  -0.00498  -0.01003  -0.04226   0.00000
  35        5PZ        -0.00000  -0.00000   0.00000   0.00000   0.00393
  36        6PX        -0.03430  -0.08331   0.08892   0.09136  -0.00000
  37        6PY        -0.00016   0.01370   0.02295   0.10692  -0.00000
  38        6PZ         0.00000   0.00000  -0.00000  -0.00000  -0.00897
  39        7PX        -0.02258  -0.05646   0.07119   0.05937  -0.00000
  40        7PY         0.00876   0.01892   0.00459   0.11287  -0.00000
  41        7PZ        -0.00000  -0.00000  -0.00000  -0.00000  -0.01415
  42        8D 0        0.00047   0.00111   0.00167   0.00373   0.00000
  43        8D+1        0.00000   0.00000   0.00000   0.00000   0.00286
  44        8D-1        0.00000   0.00000  -0.00000  -0.00000  -0.00821
  45        8D+2        0.00104  -0.00056  -0.01004  -0.00930   0.00000
  46        8D-2       -0.00196  -0.00601  -0.01224  -0.00359   0.00000
  47 4   H  1S         -0.01972  -0.01786   0.03969  -0.04330  -0.10025
  48        2S          0.00537   0.01210   0.04079  -0.04496  -0.10788
  49        3PX         0.00030  -0.00153  -0.01187  -0.00030   0.00012
  50        3PY        -0.00061  -0.00011   0.00224  -0.00236   0.00186
  51        3PZ        -0.00047  -0.00045  -0.00045   0.00087  -0.00121
  52 5   H  1S         -0.01972  -0.01786   0.03969  -0.04330   0.10025
  53        2S          0.00537   0.01210   0.04079  -0.04496   0.10788
  54        3PX         0.00030  -0.00153  -0.01187  -0.00030  -0.00012
  55        3PY        -0.00061  -0.00011   0.00224  -0.00236  -0.00186
  56        3PZ         0.00047   0.00045   0.00045  -0.00087  -0.00121
                          21        22        23        24        25
  21        5PX         0.23075
  22        5PY         0.00590   0.39720
  23        5PZ        -0.00000  -0.00000   0.41129
  24        6D 0        0.00572  -0.00039   0.00000   0.00018
  25        6D+1        0.00000   0.00000  -0.01113  -0.00000   0.00044
  26        6D-1       -0.00000   0.00000   0.00019  -0.00000  -0.00002
  27        6D+2       -0.01009  -0.00079  -0.00000  -0.00032  -0.00000
  28        6D-2        0.00018  -0.01164  -0.00000   0.00002  -0.00000
  29 3   Cl 1S          0.00064   0.00433  -0.00000   0.00002  -0.00000
  30        2S         -0.00074  -0.01408   0.00000  -0.00004  -0.00000
  31        3S          0.00733   0.03063  -0.00000   0.00009   0.00000
  32        4S         -0.00559   0.05834  -0.00000  -0.00012   0.00000
  33        5PX        -0.02904  -0.02776   0.00000   0.00018   0.00000
  34        5PY        -0.00635  -0.03652   0.00000   0.00001   0.00000
  35        5PZ         0.00000   0.00000   0.00371  -0.00000  -0.00020
  36        6PX         0.07036   0.07102  -0.00000  -0.00043  -0.00000
  37        6PY         0.01394   0.09039  -0.00000  -0.00003  -0.00000
  38        6PZ        -0.00000  -0.00000  -0.00850   0.00000   0.00058
  39        7PX         0.05467   0.04499  -0.00000  -0.00015  -0.00000
  40        7PY         0.00244   0.08591  -0.00000  -0.00003  -0.00000
  41        7PZ        -0.00000  -0.00000  -0.01049   0.00000   0.00093
  42        8D 0        0.00070   0.00154   0.00000   0.00011   0.00000
  43        8D+1        0.00000   0.00000   0.00159   0.00000  -0.00018
  44        8D-1       -0.00000  -0.00000  -0.00667   0.00000  -0.00028
  45        8D+2       -0.00611  -0.00719   0.00000  -0.00006   0.00000
  46        8D-2       -0.00645  -0.00102   0.00000  -0.00031  -0.00000
  47 4   H  1S          0.02374  -0.03570  -0.07959  -0.00019  -0.00321
  48        2S          0.02405  -0.03330  -0.07706   0.00052   0.00004
  49        3PX        -0.00695  -0.00036  -0.00019  -0.00021  -0.00011
  50        3PY         0.00113  -0.00184   0.00170   0.00009   0.00014
  51        3PZ        -0.00040   0.00110  -0.00051   0.00009   0.00014
  52 5   H  1S          0.02374  -0.03570   0.07959  -0.00019   0.00321
  53        2S          0.02405  -0.03330   0.07706   0.00052  -0.00004
  54        3PX        -0.00695  -0.00036   0.00019  -0.00021   0.00011
  55        3PY         0.00113  -0.00184  -0.00170   0.00009  -0.00014
  56        3PZ         0.00040  -0.00110  -0.00051  -0.00009   0.00014
                          26        27        28        29        30
  26        6D-1        0.00000
  27        6D+2        0.00000   0.00055
  28        6D-2       -0.00000   0.00000   0.00044
  29 3   Cl 1S         -0.00000  -0.00003   0.00002   2.17493
  30        2S         -0.00000   0.00001   0.00002  -0.63930   2.33924
  31        3S         -0.00000  -0.00067  -0.00000   0.06145  -0.21023
  32        4S          0.00000  -0.00038  -0.00227   0.10887  -0.39324
  33        5PX         0.00000   0.00049  -0.00044   0.00153  -0.00730
  34        5PY         0.00000  -0.00018  -0.00131   0.00407  -0.01788
  35        5PZ         0.00047  -0.00000  -0.00000  -0.00000   0.00000
  36        6PX        -0.00000  -0.00133   0.00095  -0.00371   0.01765
  37        6PY        -0.00000   0.00026   0.00296  -0.01000   0.04384
  38        6PZ        -0.00117   0.00000   0.00000   0.00000  -0.00000
  39        7PX        -0.00000  -0.00121   0.00030  -0.00221   0.00978
  40        7PY        -0.00000   0.00016   0.00058  -0.00501   0.02128
  41        7PZ        -0.00092   0.00000   0.00000   0.00000  -0.00000
  42        8D 0       -0.00000  -0.00018  -0.00032  -0.00083   0.00267
  43        8D+1        0.00001  -0.00000  -0.00000  -0.00000   0.00000
  44        8D-1        0.00002  -0.00000  -0.00000  -0.00000   0.00000
  45        8D+2        0.00000   0.00009  -0.00005  -0.00097   0.00316
  46        8D-2        0.00000   0.00048   0.00045   0.00099  -0.00314
  47 4   H  1S          0.00063   0.00070  -0.00150  -0.00318   0.00799
  48        2S          0.00028  -0.00076  -0.00008  -0.00060   0.00093
  49        3PX         0.00001   0.00038  -0.00005  -0.00006   0.00012
  50        3PY        -0.00002  -0.00015  -0.00001  -0.00023   0.00076
  51        3PZ        -0.00001  -0.00018   0.00018   0.00016  -0.00037
  52 5   H  1S         -0.00063   0.00070  -0.00150  -0.00318   0.00799
  53        2S         -0.00028  -0.00076  -0.00008  -0.00060   0.00093
  54        3PX        -0.00001   0.00038  -0.00005  -0.00006   0.00012
  55        3PY         0.00002  -0.00015  -0.00001  -0.00023   0.00076
  56        3PZ        -0.00001   0.00018  -0.00018  -0.00016   0.00037
                          31        32        33        34        35
  31        3S          0.54547
  32        4S          0.56624   0.63256
  33        5PX         0.00674   0.02545   2.12873
  34        5PY         0.02050   0.06887  -0.01583   2.09524
  35        5PZ        -0.00000  -0.00000  -0.00000  -0.00000   2.13788
  36        6PX        -0.01551  -0.05841  -0.31892   0.03825  -0.00000
  37        6PY        -0.04796  -0.16122   0.03844  -0.23655  -0.00000
  38        6PZ         0.00000   0.00000   0.00000   0.00000  -0.34068
  39        7PX        -0.01777  -0.03865  -0.24288   0.04650  -0.00000
  40        7PY        -0.04285  -0.10165   0.04103  -0.15612  -0.00000
  41        7PZ         0.00000   0.00000   0.00000   0.00000  -0.27184
  42        8D 0       -0.00457   0.00146   0.00317   0.00986   0.00000
  43        8D+1       -0.00000   0.00000   0.00000   0.00000  -0.00279
  44        8D-1       -0.00000   0.00000   0.00000   0.00000  -0.00735
  45        8D+2       -0.00524   0.00177  -0.00040   0.01496   0.00000
  46        8D-2        0.00535  -0.00196  -0.01259  -0.00892  -0.00000
  47 4   H  1S         -0.02832  -0.01844  -0.00009   0.02900   0.02764
  48        2S         -0.00158   0.00898   0.00245   0.02945   0.02795
  49        3PX        -0.00045   0.00033   0.00012   0.00104   0.00037
  50        3PY        -0.00063   0.00130   0.00124   0.00389   0.00059
  51        3PZ         0.00118   0.00058  -0.00068  -0.00094   0.00044
  52 5   H  1S         -0.02832  -0.01844  -0.00009   0.02900  -0.02764
  53        2S         -0.00158   0.00898   0.00245   0.02945  -0.02795
  54        3PX        -0.00045   0.00033   0.00012   0.00104  -0.00037
  55        3PY        -0.00063   0.00130   0.00124   0.00389  -0.00059
  56        3PZ        -0.00118  -0.00058   0.00068   0.00094   0.00044
                          36        37        38        39        40
  36        6PX         0.80803
  37        6PY        -0.09157   0.60813
  38        6PZ        -0.00000  -0.00000   0.85913
  39        7PX         0.57500  -0.11249   0.00000   0.41353
  40        7PY        -0.09849   0.36366   0.00000  -0.09760   0.22513
  41        7PZ        -0.00000  -0.00000   0.64468  -0.00000  -0.00000
  42        8D 0       -0.00797  -0.02458  -0.00000  -0.00346  -0.01289
  43        8D+1       -0.00000  -0.00000   0.00712  -0.00000  -0.00000
  44        8D-1       -0.00000  -0.00000   0.01870  -0.00000  -0.00000
  45        8D+2        0.00117  -0.03731  -0.00000   0.00361  -0.02112
  46        8D-2        0.03163   0.02220   0.00000   0.01997   0.01021
  47 4   H  1S         -0.00091  -0.07434  -0.06979   0.00909  -0.05586
  48        2S         -0.00614  -0.07013  -0.06757   0.00253  -0.04520
  49        3PX        -0.00049  -0.00280  -0.00114  -0.00026  -0.00173
  50        3PY        -0.00282  -0.00942  -0.00167  -0.00122  -0.00509
  51        3PZ         0.00182   0.00294  -0.00104   0.00076   0.00262
  52 5   H  1S         -0.00091  -0.07434   0.06979   0.00909  -0.05586
  53        2S         -0.00614  -0.07013   0.06757   0.00253  -0.04520
  54        3PX        -0.00049  -0.00280   0.00114  -0.00026  -0.00173
  55        3PY        -0.00282  -0.00942   0.00167  -0.00122  -0.00509
  56        3PZ        -0.00182  -0.00294  -0.00104  -0.00076  -0.00262
                          41        42        43        44        45
  41        7PZ         0.48498
  42        8D 0       -0.00000   0.00154
  43        8D+1        0.00495   0.00000   0.00020
  44        8D-1        0.01281   0.00000   0.00059   0.00210
  45        8D+2       -0.00000   0.00191   0.00000   0.00000   0.00325
  46        8D-2        0.00000  -0.00186  -0.00000  -0.00000  -0.00157
  47 4   H  1S         -0.06623  -0.00068   0.00440   0.01786  -0.00551
  48        2S         -0.05549   0.00224   0.00113   0.00661   0.00192
  49        3PX        -0.00118  -0.00003   0.00011   0.00038   0.00013
  50        3PY        -0.00075   0.00061  -0.00019  -0.00070   0.00086
  51        3PZ        -0.00043   0.00023  -0.00014  -0.00045   0.00075
  52 5   H  1S          0.06623  -0.00068  -0.00440  -0.01786  -0.00551
  53        2S          0.05549   0.00224  -0.00113  -0.00661   0.00192
  54        3PX         0.00118  -0.00003  -0.00011  -0.00038   0.00013
  55        3PY         0.00075   0.00061   0.00019   0.00070   0.00086
  56        3PZ        -0.00043  -0.00023  -0.00014  -0.00045  -0.00075
                          46        47        48        49        50
  46        8D-2        0.00320
  47 4   H  1S         -0.00286   0.38858
  48        2S         -0.00384   0.14185   0.06850
  49        3PX         0.00021   0.00714   0.00198   0.00040
  50        3PY        -0.00070  -0.00992  -0.00235  -0.00026   0.00057
  51        3PZ         0.00008  -0.01896  -0.00497  -0.00039   0.00049
  52 5   H  1S         -0.00286  -0.06618  -0.05544  -0.00234   0.00506
  53        2S         -0.00384  -0.05544  -0.03054  -0.00177   0.00354
  54        3PX         0.00021  -0.00234  -0.00177   0.00019   0.00007
  55        3PY        -0.00070   0.00506   0.00354   0.00007   0.00004
  56        3PZ        -0.00008   0.00947   0.00160   0.00017  -0.00014
                          51        52        53        54        55
  51        3PZ         0.00144
  52 5   H  1S         -0.00947   0.38858
  53        2S         -0.00160   0.14185   0.06850
  54        3PX        -0.00017   0.00714   0.00198   0.00040
  55        3PY         0.00014  -0.00992  -0.00235  -0.00026   0.00057
  56        3PZ        -0.00120   0.01896   0.00497   0.00039  -0.00049
                          56
  56        3PZ         0.00144
    Full Mulliken population analysis:
                           1         2         3         4         5
   1 1   C  1S          2.05577
   2        2S         -0.02046   0.35394
   3        3S         -0.02101   0.15899   0.12909
   4        4PX         0.00000   0.00000   0.00000   0.30642
   5        4PY         0.00000   0.00000   0.00000  -0.00000   0.35836
   6        4PZ         0.00000   0.00000   0.00000   0.00000   0.00000
   7        5PX         0.00000   0.00000   0.00000   0.03384  -0.00000
   8        5PY         0.00000   0.00000   0.00000   0.00000   0.06730
   9        5PZ         0.00000   0.00000   0.00000   0.00000   0.00000
  10        6D 0        0.00000  -0.00000  -0.00000   0.00000   0.00000
  11        6D+1       -0.00000   0.00000  -0.00000   0.00000   0.00000
  12        6D-1       -0.00000   0.00000   0.00000   0.00000   0.00000
  13        6D+2        0.00000   0.00000  -0.00000   0.00000   0.00000
  14        6D-2       -0.00000   0.00000   0.00000   0.00000   0.00000
  15 2   F  1S          0.00000   0.00002   0.00077  -0.00046  -0.00000
  16        2S         -0.00000  -0.00108  -0.00592   0.00839   0.00003
  17        3S          0.00024  -0.01133  -0.01720   0.00031  -0.00002
  18        4PX        -0.00017   0.01734   0.00207   0.06291   0.00020
  19        4PY         0.00000  -0.00003  -0.00007   0.00015   0.00184
  20        4PZ        -0.00000   0.00000   0.00000   0.00000   0.00000
  21        5PX        -0.00411   0.04367   0.00440   0.08343   0.00028
  22        5PY         0.00001  -0.00011  -0.00018   0.00026   0.00285
  23        5PZ        -0.00000   0.00000   0.00000   0.00000   0.00000
  24        6D 0       -0.00000   0.00020   0.00002   0.00039   0.00000
  25        6D+1       -0.00000   0.00000   0.00000   0.00000   0.00000
  26        6D-1        0.00000  -0.00000  -0.00000  -0.00000   0.00000
  27        6D+2       -0.00002   0.00062   0.00007   0.00112   0.00001
  28        6D-2       -0.00000   0.00000  -0.00000   0.00000   0.00039
  29 3   Cl 1S         -0.00000  -0.00000  -0.00005   0.00000   0.00001
  30        2S          0.00000   0.00000   0.00150  -0.00001  -0.00019
  31        3S         -0.00000  -0.00086  -0.00605   0.00032   0.00558
  32        4S          0.00049  -0.00720  -0.02258  -0.00164  -0.00426
  33        5PX         0.00000  -0.00005  -0.00025  -0.00000  -0.00025
  34        5PY         0.00000  -0.00022  -0.00089  -0.00021  -0.00138
  35        5PZ         0.00000  -0.00000  -0.00000  -0.00000  -0.00000
  36        6PX        -0.00007   0.00287   0.00542  -0.00001   0.00976
  37        6PY        -0.00027   0.01131   0.01852   0.00780   0.04950
  38        6PZ        -0.00000   0.00000   0.00000   0.00000   0.00000
  39        7PX        -0.00044   0.00599   0.00900  -0.00008   0.00837
  40        7PY        -0.00108   0.01642   0.02161   0.00686   0.03750
  41        7PZ        -0.00000   0.00000   0.00000   0.00000   0.00000
  42        8D 0       -0.00004   0.00097   0.00058   0.00020   0.00167
  43        8D+1       -0.00000   0.00000   0.00000   0.00000   0.00000
  44        8D-1       -0.00000   0.00000   0.00000   0.00000   0.00000
  45        8D+2       -0.00006   0.00166   0.00106   0.00167   0.00157
  46        8D-2       -0.00005   0.00140   0.00077   0.00001   0.00347
  47 4   H  1S         -0.00413   0.05666   0.04768   0.01227   0.02604
  48        2S         -0.00024   0.00699   0.00745   0.00214   0.00617
  49        3PX        -0.00014   0.00088   0.00019   0.00092   0.00022
  50        3PY        -0.00023   0.00152   0.00059   0.00018   0.00040
  51        3PZ        -0.00086   0.00581   0.00210   0.00124   0.00272
  52 5   H  1S         -0.00413   0.05666   0.04768   0.01227   0.02604
  53        2S         -0.00024   0.00699   0.00745   0.00214   0.00617
  54        3PX        -0.00014   0.00088   0.00019   0.00092   0.00022
  55        3PY        -0.00023   0.00152   0.00059   0.00018   0.00040
  56        3PZ        -0.00086   0.00581   0.00210   0.00124   0.00272
                           6         7         8         9        10
   6        4PZ         0.47199
   7        5PX         0.00000   0.02215
   8        5PY         0.00000   0.00000   0.05392
   9        5PZ         0.07479   0.00000   0.00000   0.05178
  10        6D 0        0.00000   0.00000   0.00000   0.00000   0.00248
  11        6D+1        0.00000   0.00000   0.00000   0.00000  -0.00000
  12        6D-1        0.00000   0.00000   0.00000   0.00000   0.00000
  13        6D+2        0.00000   0.00000   0.00000   0.00000   0.00000
  14        6D-2        0.00000   0.00000   0.00000   0.00000   0.00000
  15 2   F  1S         -0.00000  -0.00029  -0.00000  -0.00000  -0.00016
  16        2S          0.00000   0.00767   0.00003   0.00000   0.00187
  17        3S          0.00000   0.00631   0.00006  -0.00000   0.00156
  18        4PX        -0.00000   0.00380   0.00002   0.00000   0.00324
  19        4PY        -0.00000   0.00020   0.00973   0.00000   0.00002
  20        4PZ        -0.00037  -0.00000   0.00000   0.00810   0.00000
  21        5PX        -0.00000   0.00437   0.00004   0.00000   0.00116
  22        5PY        -0.00000   0.00043   0.02567   0.00000   0.00001
  23        5PZ        -0.00493  -0.00000   0.00000   0.02130   0.00000
  24        6D 0        0.00000  -0.00000  -0.00000   0.00000   0.00003
  25        6D+1        0.00045  -0.00000   0.00000   0.00020   0.00000
  26        6D-1        0.00000  -0.00000   0.00000   0.00000  -0.00000
  27        6D+2        0.00000  -0.00000   0.00000   0.00000   0.00004
  28        6D-2        0.00000   0.00000   0.00020   0.00000  -0.00000
  29 3   Cl 1S          0.00000  -0.00001  -0.00003  -0.00000   0.00000
  30        2S         -0.00000   0.00030   0.00128   0.00000  -0.00007
  31        3S          0.00000  -0.00114   0.00278   0.00000   0.00070
  32        4S         -0.00000  -0.00402  -0.01483  -0.00000   0.00045
  33        5PX         0.00000  -0.00019  -0.00026  -0.00000  -0.00001
  34        5PY         0.00000  -0.00042  -0.00144  -0.00000  -0.00011
  35        5PZ         0.00001  -0.00000  -0.00000  -0.00012  -0.00000
  36        6PX        -0.00000   0.00503   0.00452   0.00000   0.00007
  37        6PY        -0.00000   0.00762   0.02326   0.00000   0.00201
  38        6PZ        -0.00088   0.00000   0.00000   0.00253   0.00000
  39        7PX        -0.00000   0.01261   0.00286   0.00000  -0.00002
  40        7PY        -0.00000   0.00735   0.01330   0.00000   0.00044
  41        7PZ        -0.00544   0.00000   0.00000   0.00221   0.00000
  42        8D 0        0.00000   0.00003   0.00021   0.00000   0.00009
  43        8D+1        0.00021   0.00000   0.00000   0.00016   0.00000
  44        8D-1        0.00184   0.00000   0.00000   0.00111   0.00000
  45        8D+2        0.00000   0.00064   0.00001   0.00000   0.00004
  46        8D-2        0.00000   0.00006   0.00070   0.00000   0.00011
  47 4   H  1S          0.10308   0.00561   0.01168   0.03945   0.00191
  48        2S          0.02172   0.00111   0.00428   0.01107   0.00021
  49        3PX         0.00120   0.00017   0.00004   0.00018  -0.00008
  50        3PY         0.00260   0.00005   0.00029   0.00038  -0.00011
  51        3PZ         0.00161   0.00023   0.00045  -0.00017  -0.00005
  52 5   H  1S          0.10308   0.00561   0.01168   0.03945   0.00191
  53        2S          0.02172   0.00111   0.00428   0.01107   0.00021
  54        3PX         0.00120   0.00017   0.00004   0.00018  -0.00008
  55        3PY         0.00260   0.00005   0.00029   0.00038  -0.00011
  56        3PZ         0.00161   0.00023   0.00045  -0.00017  -0.00005
                          11        12        13        14        15
  11        6D+1        0.00371
  12        6D-1       -0.00000   0.00176
  13        6D+2        0.00000   0.00000   0.00492
  14        6D-2        0.00000   0.00000  -0.00000   0.00461
  15 2   F  1S         -0.00000  -0.00000  -0.00043  -0.00000   2.09487
  16        2S          0.00000  -0.00000   0.00522   0.00001  -0.04418
  17        3S          0.00000  -0.00000   0.00517  -0.00000  -0.05143
  18        4PX         0.00000  -0.00000   0.00813   0.00006   0.00000
  19        4PY         0.00000   0.00000   0.00000   0.00701   0.00000
  20        4PZ         0.00726   0.00001   0.00000   0.00000   0.00000
  21        5PX         0.00000  -0.00000   0.00303   0.00004   0.00000
  22        5PY         0.00000   0.00000  -0.00001   0.01235   0.00000
  23        5PZ         0.01278   0.00002   0.00000   0.00000   0.00000
  24        6D 0        0.00000   0.00000   0.00003   0.00000   0.00000
  25        6D+1        0.00016  -0.00000   0.00000   0.00000  -0.00000
  26        6D-1        0.00000   0.00000  -0.00000   0.00000   0.00000
  27        6D+2        0.00000   0.00000   0.00013   0.00000  -0.00000
  28        6D-2        0.00000  -0.00000   0.00000   0.00016  -0.00000
  29 3   Cl 1S          0.00000   0.00000   0.00000   0.00000   0.00000
  30        2S         -0.00000  -0.00000  -0.00010  -0.00011   0.00000
  31        3S          0.00000   0.00000   0.00104   0.00114   0.00000
  32        4S          0.00000   0.00000   0.00039   0.00097  -0.00001
  33        5PX         0.00000  -0.00000  -0.00017   0.00001  -0.00000
  34        5PY        -0.00000  -0.00000  -0.00007  -0.00025   0.00000
  35        5PZ        -0.00001  -0.00009  -0.00000  -0.00000  -0.00000
  36        6PX         0.00000   0.00000   0.00437   0.00009   0.00000
  37        6PY         0.00000   0.00000   0.00104   0.00501  -0.00000
  38        6PZ         0.00035   0.00332   0.00000   0.00000   0.00000
  39        7PX         0.00000   0.00000   0.00330   0.00089   0.00006
  40        7PY         0.00000   0.00000   0.00001   0.00205  -0.00002
  41        7PZ         0.00046   0.00447   0.00000   0.00000  -0.00000
  42        8D 0        0.00000   0.00000   0.00006   0.00005  -0.00000
  43        8D+1       -0.00000   0.00001   0.00000   0.00000   0.00000
  44        8D-1        0.00011   0.00004   0.00000   0.00000   0.00000
  45        8D+2        0.00000   0.00000   0.00000   0.00044  -0.00000
  46        8D-2       -0.00000   0.00000   0.00026  -0.00000   0.00000
  47 4   H  1S          0.00231   0.00250   0.00010   0.00048   0.00000
  48        2S          0.00032   0.00029   0.00001   0.00010  -0.00005
  49        3PX        -0.00003   0.00003  -0.00012  -0.00003  -0.00000
  50        3PY         0.00005  -0.00003  -0.00004   0.00003  -0.00000
  51        3PZ         0.00001   0.00002   0.00000   0.00001  -0.00000
  52 5   H  1S          0.00231   0.00250   0.00010   0.00048   0.00000
  53        2S          0.00032   0.00029   0.00001   0.00010  -0.00005
  54        3PX        -0.00003   0.00003  -0.00012  -0.00003  -0.00000
  55        3PY         0.00005  -0.00003  -0.00004   0.00003  -0.00000
  56        3PZ         0.00001   0.00002   0.00000   0.00001  -0.00000
                          16        17        18        19        20
  16        2S          0.49905
  17        3S          0.43533   0.62958
  18        4PX         0.00000   0.00000   0.64455
  19        4PY         0.00000   0.00000   0.00000   0.88761
  20        4PZ         0.00000   0.00000   0.00000   0.00000   0.91034
  21        5PX         0.00000   0.00000   0.18841   0.00000   0.00000
  22        5PY         0.00000   0.00000   0.00000   0.29079   0.00000
  23        5PZ         0.00000   0.00000   0.00000   0.00000   0.29977
  24        6D 0       -0.00000  -0.00000   0.00000   0.00000   0.00000
  25        6D+1        0.00000   0.00000   0.00000   0.00000   0.00000
  26        6D-1       -0.00000  -0.00000   0.00000   0.00000   0.00000
  27        6D+2        0.00000   0.00000   0.00000   0.00000   0.00000
  28        6D-2        0.00000   0.00000   0.00000   0.00000   0.00000
  29 3   Cl 1S         -0.00000   0.00000  -0.00000  -0.00000  -0.00000
  30        2S          0.00000  -0.00000   0.00000   0.00000   0.00000
  31        3S         -0.00000  -0.00000  -0.00000  -0.00001  -0.00000
  32        4S          0.00008   0.00049   0.00005  -0.00057  -0.00000
  33        5PX         0.00000   0.00001   0.00000   0.00000   0.00000
  34        5PY         0.00000  -0.00000   0.00000   0.00000   0.00000
  35        5PZ         0.00000   0.00000   0.00000   0.00000   0.00000
  36        6PX        -0.00001  -0.00071  -0.00004  -0.00004  -0.00000
  37        6PY        -0.00000   0.00009  -0.00001  -0.00003  -0.00000
  38        6PZ        -0.00000  -0.00000  -0.00000  -0.00000  -0.00000
  39        7PX        -0.00096  -0.00661  -0.00167  -0.00146  -0.00000
  40        7PY         0.00030   0.00177  -0.00011  -0.00142  -0.00000
  41        7PZ         0.00000   0.00000  -0.00000  -0.00000  -0.00010
  42        8D 0       -0.00000  -0.00001   0.00000   0.00000  -0.00000
  43        8D+1       -0.00000  -0.00000   0.00000   0.00000   0.00000
  44        8D-1       -0.00000  -0.00000  -0.00000  -0.00000  -0.00000
  45        8D+2        0.00000  -0.00000   0.00000   0.00000  -0.00000
  46        8D-2       -0.00000  -0.00008   0.00001   0.00000   0.00000
  47 4   H  1S         -0.00011  -0.00073  -0.00029  -0.00010  -0.00039
  48        2S          0.00046   0.00247  -0.00166  -0.00056  -0.00233
  49        3PX         0.00000  -0.00007   0.00007  -0.00000   0.00000
  50        3PY         0.00000   0.00000   0.00000  -0.00000  -0.00000
  51        3PZ         0.00000   0.00001  -0.00000  -0.00000   0.00000
  52 5   H  1S         -0.00011  -0.00073  -0.00029  -0.00010  -0.00039
  53        2S          0.00046   0.00247  -0.00166  -0.00056  -0.00233
  54        3PX         0.00000  -0.00007   0.00007  -0.00000   0.00000
  55        3PY         0.00000   0.00000   0.00000  -0.00000  -0.00000
  56        3PZ         0.00000   0.00001  -0.00000  -0.00000   0.00000
                          21        22        23        24        25
  21        5PX         0.23075
  22        5PY         0.00000   0.39720
  23        5PZ         0.00000   0.00000   0.41129
  24        6D 0        0.00000   0.00000   0.00000   0.00018
  25        6D+1        0.00000   0.00000   0.00000   0.00000   0.00044
  26        6D-1        0.00000   0.00000   0.00000   0.00000  -0.00000
  27        6D+2        0.00000   0.00000   0.00000   0.00000   0.00000
  28        6D-2        0.00000   0.00000   0.00000  -0.00000   0.00000
  29 3   Cl 1S         -0.00000  -0.00000  -0.00000  -0.00000   0.00000
  30        2S          0.00000   0.00001   0.00000   0.00000   0.00000
  31        3S         -0.00014  -0.00046  -0.00000  -0.00000  -0.00000
  32        4S          0.00041  -0.00345  -0.00000   0.00000  -0.00000
  33        5PX         0.00003   0.00002   0.00000  -0.00000  -0.00000
  34        5PY         0.00001   0.00002   0.00000  -0.00000  -0.00000
  35        5PZ         0.00000   0.00000   0.00000  -0.00000   0.00000
  36        6PX        -0.00186  -0.00179  -0.00000   0.00000   0.00000
  37        6PY        -0.00035  -0.00137  -0.00000   0.00000   0.00000
  38        6PZ        -0.00000  -0.00000  -0.00004   0.00000  -0.00000
  39        7PX        -0.00706  -0.00671  -0.00000   0.00000   0.00000
  40        7PY        -0.00036  -0.00539  -0.00000   0.00000   0.00000
  41        7PZ        -0.00000  -0.00000  -0.00059   0.00000  -0.00001
  42        8D 0        0.00002   0.00003  -0.00000   0.00000   0.00000
  43        8D+1        0.00000   0.00000   0.00001   0.00000   0.00000
  44        8D-1       -0.00000  -0.00000  -0.00005   0.00000   0.00000
  45        8D+2        0.00001   0.00012  -0.00000   0.00000  -0.00000
  46        8D-2        0.00027   0.00003   0.00000   0.00000   0.00000
  47 4   H  1S         -0.00257  -0.00119  -0.00457   0.00000   0.00002
  48        2S         -0.00530  -0.00226  -0.00901  -0.00000  -0.00000
  49        3PX         0.00077  -0.00002  -0.00001   0.00000   0.00000
  50        3PY         0.00005  -0.00003  -0.00004   0.00000   0.00000
  51        3PZ        -0.00003  -0.00002   0.00001   0.00000   0.00000
  52 5   H  1S         -0.00257  -0.00119  -0.00457   0.00000   0.00002
  53        2S         -0.00530  -0.00226  -0.00901  -0.00000  -0.00000
  54        3PX         0.00077  -0.00002  -0.00001   0.00000   0.00000
  55        3PY         0.00005  -0.00003  -0.00004   0.00000   0.00000
  56        3PZ        -0.00003  -0.00002   0.00001   0.00000   0.00000
                          26        27        28        29        30
  26        6D-1        0.00000
  27        6D+2        0.00000   0.00055
  28        6D-2        0.00000   0.00000   0.00044
  29 3   Cl 1S          0.00000  -0.00000   0.00000   2.17493
  30        2S          0.00000   0.00000   0.00000  -0.17660   2.33924
  31        3S          0.00000  -0.00000  -0.00000  -0.00323  -0.03479
  32        4S         -0.00000  -0.00000  -0.00001   0.00504  -0.12096
  33        5PX        -0.00000   0.00000  -0.00000   0.00000   0.00000
  34        5PY        -0.00000  -0.00000  -0.00000   0.00000   0.00000
  35        5PZ        -0.00000  -0.00000   0.00000   0.00000   0.00000
  36        6PX         0.00000  -0.00000   0.00000   0.00000   0.00000
  37        6PY         0.00000   0.00000   0.00000   0.00000   0.00000
  38        6PZ         0.00000   0.00000  -0.00000   0.00000   0.00000
  39        7PX         0.00000   0.00000   0.00000   0.00000   0.00000
  40        7PY         0.00000   0.00000   0.00001   0.00000   0.00000
  41        7PZ         0.00000   0.00000  -0.00000   0.00000   0.00000
  42        8D 0       -0.00000   0.00000   0.00000  -0.00000   0.00000
  43        8D+1       -0.00000   0.00000   0.00000   0.00000  -0.00000
  44        8D-1       -0.00000   0.00000   0.00000   0.00000  -0.00000
  45        8D+2       -0.00000  -0.00000  -0.00000  -0.00000   0.00000
  46        8D-2       -0.00000   0.00000   0.00000   0.00000  -0.00000
  47 4   H  1S          0.00000   0.00000   0.00001  -0.00000   0.00000
  48        2S          0.00000  -0.00001   0.00000  -0.00000   0.00002
  49        3PX         0.00000   0.00000   0.00000   0.00000  -0.00000
  50        3PY         0.00000   0.00000  -0.00000   0.00000  -0.00000
  51        3PZ         0.00000   0.00000   0.00000  -0.00000   0.00000
  52 5   H  1S          0.00000   0.00000   0.00001  -0.00000   0.00000
  53        2S          0.00000  -0.00001   0.00000  -0.00000   0.00002
  54        3PX         0.00000   0.00000   0.00000   0.00000  -0.00000
  55        3PY         0.00000   0.00000  -0.00000   0.00000  -0.00000
  56        3PZ         0.00000   0.00000   0.00000  -0.00000   0.00000
                          31        32        33        34        35
  31        3S          0.54547
  32        4S          0.47767   0.63256
  33        5PX         0.00000   0.00000   2.12873
  34        5PY         0.00000   0.00000  -0.00000   2.09524
  35        5PZ         0.00000   0.00000   0.00000   0.00000   2.13788
  36        6PX         0.00000   0.00000  -0.10849   0.00000  -0.00000
  37        6PY         0.00000   0.00000   0.00000  -0.08047  -0.00000
  38        6PZ         0.00000   0.00000  -0.00000  -0.00000  -0.11590
  39        7PX         0.00000   0.00000  -0.02175   0.00000  -0.00000
  40        7PY         0.00000   0.00000   0.00000  -0.01398  -0.00000
  41        7PZ         0.00000   0.00000  -0.00000  -0.00000  -0.02434
  42        8D 0       -0.00000   0.00000   0.00000   0.00000   0.00000
  43        8D+1        0.00000  -0.00000   0.00000   0.00000   0.00000
  44        8D-1        0.00000  -0.00000   0.00000   0.00000   0.00000
  45        8D+2       -0.00000   0.00000   0.00000   0.00000   0.00000
  46        8D-2        0.00000  -0.00000   0.00000   0.00000   0.00000
  47 4   H  1S         -0.00021  -0.00094  -0.00000   0.00001   0.00000
  48        2S         -0.00016   0.00192   0.00000   0.00026   0.00011
  49        3PX         0.00000  -0.00000   0.00000  -0.00000  -0.00000
  50        3PY         0.00000  -0.00007  -0.00000  -0.00000  -0.00000
  51        3PZ        -0.00000  -0.00001   0.00000   0.00000  -0.00000
  52 5   H  1S         -0.00021  -0.00094  -0.00000   0.00001   0.00000
  53        2S         -0.00016   0.00192   0.00000   0.00026   0.00011
  54        3PX         0.00000  -0.00000   0.00000  -0.00000  -0.00000
  55        3PY         0.00000  -0.00007  -0.00000  -0.00000  -0.00000
  56        3PZ        -0.00000  -0.00001   0.00000   0.00000  -0.00000
                          36        37        38        39        40
  36        6PX         0.80803
  37        6PY        -0.00000   0.60813
  38        6PZ         0.00000   0.00000   0.85913
  39        7PX         0.35614  -0.00000   0.00000   0.41353
  40        7PY        -0.00000   0.22524   0.00000  -0.00000   0.22513
  41        7PZ         0.00000   0.00000   0.39930   0.00000   0.00000
  42        8D 0        0.00000   0.00000   0.00000   0.00000   0.00000
  43        8D+1        0.00000   0.00000   0.00000   0.00000   0.00000
  44        8D-1        0.00000   0.00000   0.00000   0.00000   0.00000
  45        8D+2        0.00000   0.00000   0.00000   0.00000   0.00000
  46        8D-2        0.00000   0.00000   0.00000   0.00000   0.00000
  47 4   H  1S         -0.00000  -0.00113  -0.00045   0.00022  -0.00922
  48        2S         -0.00009  -0.00674  -0.00274   0.00013  -0.01558
  49        3PX        -0.00000   0.00001   0.00000  -0.00001   0.00004
  50        3PY         0.00001   0.00016   0.00001   0.00003   0.00064
  51        3PZ        -0.00000  -0.00002   0.00000  -0.00001  -0.00018
  52 5   H  1S         -0.00000  -0.00113  -0.00045   0.00022  -0.00922
  53        2S         -0.00009  -0.00674  -0.00274   0.00013  -0.01558
  54        3PX        -0.00000   0.00001   0.00000  -0.00001   0.00004
  55        3PY         0.00001   0.00016   0.00001   0.00003   0.00064
  56        3PZ        -0.00000  -0.00002   0.00000  -0.00001  -0.00018
                          41        42        43        44        45
  41        7PZ         0.48498
  42        8D 0        0.00000   0.00154
  43        8D+1        0.00000  -0.00000   0.00020
  44        8D-1        0.00000  -0.00000   0.00000   0.00210
  45        8D+2        0.00000  -0.00000  -0.00000   0.00000   0.00325
  46        8D-2        0.00000   0.00000   0.00000   0.00000  -0.00000
  47 4   H  1S         -0.00461   0.00000   0.00001   0.00026   0.00009
  48        2S         -0.00807  -0.00004   0.00001   0.00027  -0.00009
  49        3PX         0.00001  -0.00000   0.00000  -0.00000   0.00000
  50        3PY         0.00005   0.00000   0.00000   0.00001   0.00002
  51        3PZ        -0.00000   0.00000   0.00000   0.00000   0.00001
  52 5   H  1S         -0.00461   0.00000   0.00001   0.00026   0.00009
  53        2S         -0.00807  -0.00004   0.00001   0.00027  -0.00009
  54        3PX         0.00001  -0.00000   0.00000  -0.00000   0.00000
  55        3PY         0.00005   0.00000   0.00000   0.00001   0.00002
  56        3PZ        -0.00000   0.00000   0.00000   0.00000   0.00001
                          46        47        48        49        50
  46        8D-2        0.00320
  47 4   H  1S         -0.00001   0.38858
  48        2S         -0.00005   0.09714   0.06850
  49        3PX         0.00000   0.00000   0.00000   0.00040
  50        3PY         0.00000   0.00000   0.00000  -0.00000   0.00057
  51        3PZ        -0.00000   0.00000   0.00000   0.00000  -0.00000
  52 5   H  1S         -0.00001  -0.00334  -0.01185   0.00000   0.00000
  53        2S         -0.00005  -0.01185  -0.01477   0.00000   0.00000
  54        3PX         0.00000   0.00000   0.00000   0.00000   0.00000
  55        3PY         0.00000   0.00000   0.00000   0.00000   0.00000
  56        3PZ        -0.00000   0.00063   0.00023   0.00000   0.00000
                          51        52        53        54        55
  51        3PZ         0.00144
  52 5   H  1S          0.00063   0.38858
  53        2S          0.00023   0.09714   0.06850
  54        3PX         0.00000   0.00000   0.00000   0.00040
  55        3PY         0.00000   0.00000   0.00000  -0.00000   0.00057
  56        3PZ         0.00012   0.00000   0.00000   0.00000   0.00000
                          56
  56        3PZ         0.00144
     Gross orbital populations:
                           1
   1 1   C  1S          1.99753
   2        2S          0.71781
   3        3S          0.39565
   4        4PX         0.54519
   5        4PY         0.61365
   6        4PZ         0.79809
   7        5PX         0.12068
   8        5PY         0.22282
   9        5PZ         0.26387
  10        6D 0        0.01771
  11        6D+1        0.03014
  12        6D-1        0.01516
  13        6D+2        0.03623
  14        6D-2        0.03570
  15 2   F  1S          1.99863
  16        2S          0.90652
  17        3S          0.99690
  18        4PX         0.92505
  19        4PY         1.19239
  20        4PZ         1.21956
  21        5PX         0.53229
  22        5PY         0.70329
  23        5PZ         0.71231
  24        6D 0        0.00085
  25        6D+1        0.00128
  26        6D-1        0.00002
  27        6D+2        0.00253
  28        6D-2        0.00122
  29 3   Cl 1S          2.00006
  30        2S          2.00954
  31        3S          0.98726
  32        4S          0.94089
  33        5PX         1.99738
  34        5PY         1.99636
  35        5PZ         1.99765
  36        6PX         1.08310
  37        6PY         0.86158
  38        6PZ         1.14148
  39        7PX         0.76674
  40        7PY         0.48704
  41        7PZ         0.83569
  42        8D 0        0.00533
  43        8D+1        0.00064
  44        8D-1        0.00625
  45        8D+2        0.01047
  46        8D-2        0.01003
  47 4   H  1S          0.75092
  48        2S          0.15176
  49        3PX         0.00463
  50        3PY         0.00714
  51        3PZ         0.01528
  52 5   H  1S          0.75092
  53        2S          0.15176
  54        3PX         0.00463
  55        3PY         0.00714
  56        3PZ         0.01528
          Condensed to atoms (all electrons):
               1          2          3          4          5
     1  C    4.407758   0.343182   0.280294   0.389497   0.389497
     2  F    0.343182   8.944264  -0.039660  -0.027474  -0.027474
     3  Cl   0.280294  -0.039660  16.989035  -0.046099  -0.046099
     4  H    0.389497  -0.027474  -0.046099   0.653776  -0.039970
     5  H    0.389497  -0.027474  -0.046099  -0.039970   0.653776
 Mulliken charges:
               1
     1  C    0.189773
     2  F   -0.192838
     3  Cl  -0.137472
     4  H    0.070269
     5  H    0.070269
 Sum of Mulliken charges =   0.00000
 Mulliken charges with hydrogens summed into heavy atoms:
               1
     1  C    0.330310
     2  F   -0.192838
     3  Cl  -0.137472
 Electronic spatial extent (au):  <R**2>=            237.5337
 Charge=              0.0000 electrons
 Dipole moment (field-independent basis, Debye):
    X=             -0.8570    Y=              1.6418    Z=              0.0000  Tot=              1.8520
 Quadrupole moment (field-independent basis, Debye-Ang):
   XX=            -25.7439   YY=            -22.2981   ZZ=            -23.0617
   XY=             -1.4033   XZ=              0.0000   YZ=             -0.0000
 Traceless Quadrupole moment (field-independent basis, Debye-Ang):
   XX=             -2.0427   YY=              1.4031   ZZ=              0.6395
   XY=             -1.4033   XZ=              0.0000   YZ=             -0.0000
 Octapole moment (field-independent basis, Debye-Ang**2):
  XXX=              6.3130  YYY=              3.1789  ZZZ=              0.0000  XYY=              0.3621
  XXY=             -0.2345  XXZ=             -0.0000  XZZ=              2.5195  YZZ=              2.8389
  YYZ=             -0.0000  XYZ=              0.0000
 Hexadecapole moment (field-independent basis, Debye-Ang**3):
 XXXX=           -111.8603 YYYY=           -121.7722 ZZZZ=            -28.4715 XXXY=            -36.0559
 XXXZ=              0.0000 YYYX=            -32.9144 YYYZ=             -0.0000 ZZZX=              0.0000
 ZZZY=              0.0000 XXYY=            -39.1337 XXZZ=            -23.2717 YYZZ=            -24.9765
 XXYZ=             -0.0000 YYXZ=              0.0000 ZZXY=            -12.4153
 N-N= 1.003025619417D+02 E-N=-1.624441604182D+03  KE= 5.977236505581D+02
 Symmetry A'   KE= 5.434256858906D+02
 Symmetry A"   KE= 5.429796466744D+01
 Orbital energies and kinetic energies (alpha):
                                 1                 2
   1         O              -101.541848        137.120082
   2         O               -24.710191         37.170846
   3         O               -10.330296         15.969016
   4         O                -9.460846         21.591151
   5         O                -7.223369         20.538731
   6         O                -7.213807         20.552162
   7         O                -7.213209         20.552771
   8         O                -1.229375          3.636661
   9         O                -0.857974          2.740478
  10         O                -0.685944          2.317992
  11         O                -0.527173          1.592879
  12         O                -0.526997          2.402861
  13         O                -0.487561          2.485577
  14         O                -0.382791          2.712025
  15         O                -0.374006          2.784226
  16         O                -0.322096          2.403060
  17         O                -0.307505          2.291308
  18         V                 0.016483          2.142272
  19         V                 0.069728          1.115169
  20         V                 0.101974          0.816806
  21         V                 0.109171          2.330853
  22         V                 0.401688          1.543342
  23         V                 0.434429          1.630673
  24         V                 0.457267          2.616725
  25         V                 0.492177          2.741506
  26         V                 0.552145          2.715970
  27         V                 0.554869          2.657423
  28         V                 0.563952          2.960836
  29         V                 0.591116          2.345579
  30         V                 0.684709          2.284111
  31         V                 0.714747          2.594656
  32         V                 0.716590          2.128947
  33         V                 0.738736          2.229795
  34         V                 0.773441          2.232771
  35         V                 0.917304          2.559172
  36         V                 1.050609          3.318396
  37         V                 1.065446          2.100633
  38         V                 1.151868          3.211928
  39         V                 1.227443          3.315674
  40         V                 1.265128          3.662555
  41         V                 1.340652          3.321639
  42         V                 1.533208          2.506245
  43         V                 1.621577          3.241948
  44         V                 1.628030          2.814997
  45         V                 1.671365          3.293496
  46         V                 1.776672          3.064389
  47         V                 1.807286          2.733255
  48         V                 1.991652          2.947746
  49         V                 2.272625          4.749291
  50         V                 2.351980          4.311033
  51         V                 2.427812          4.901227
  52         V                 3.573210          5.768033
  53         V                 3.575127          5.767688
  54         V                 3.766599          6.002454
  55         V                 3.819247          6.033683
  56         V                 4.015075          6.554600
 Total kinetic energy from orbitals= 5.977236505581D+02
 No NMR shielding tensors so no spin-rotation constants.
 Leave Link  601 at Sat Sep 12 17:34:47 2026, MaxMem=  1073741824 cpu:               0.1 elap:               0.1
 (Enter /app1/ia32-64/Gaussian/Rev-C.02/g16/l9999.exe)
 Unable to Open any file for archive entry.
 1\1\GINC-CNODE-33-43-49\FOpt\RB3LYP\CC-pVDZ\C1H2Cl1F1\ZHANGXUBO\12-Sep
 -2026\0\\#p b3lyp/cc-pVDZ opt=tight freq pop=full int=ultrafine\\CH2FC
 l opt+freq / B3LYP/cc-pVDZ (reasonable accuracy) -- also used for dens
 ity/ESP map and BDE\\0,1\C,-0.0180545537,0.,0.0057349499\F,-0.01973500
 77,0.,1.3666842207\Cl,1.6707004279,0.,-0.6255541745\H,-0.5017211508,-0
 .9132143148,-0.3671323676\H,-0.5017211508,0.9132143148,-0.3671323676\\
 Version=ES64L-G16RevC.02\State=1-A'\HF=-599.3620525\RMSD=2.622e-09\RMS
 F=1.401e-06\Dipole=-0.6363256,0.,-0.3549799\Quadrupole=0.9832468,0.475
 4801,-1.4587269,0.,1.1128669,0.\PG=CS [SG(C1Cl1F1),X(H2)]\\@
 The archive entry for this job was punched.


0EVERYBODY IS IGNORANT, ONLY ON DIFFERENT SUBJECTS.
0          WILL ROGERS
 Leave Link 9999 at Sat Sep 12 17:34:47 2026, MaxMem=  1073741824 cpu:               0.0 elap:               0.1
 Job cpu time:       0 days  0 hours  0 minutes 15.8 seconds.
 Elapsed time:       0 days  0 hours  0 minutes 17.3 seconds.
 File lengths (MBytes):  RWF=      6 Int=      0 D2E=      0 Chk=      2 Scr=      1
 Normal termination of Gaussian 16 at Sat Sep 12 17:34:47 2026.
 (Enter /app1/ia32-64/Gaussian/Rev-C.02/g16/l1.exe)
 Link1:  Proceeding to internal job step number  2.
 -------------------------------------------------------------------
 #P Geom=AllCheck Guess=TCheck SCRF=Check GenChk RB3LYP/CC-pVDZ Freq
 -------------------------------------------------------------------
 1/7=10,10=4,29=7,30=1,38=1,40=1/1,3;
 2/12=2,40=1/2;
 3/5=16,11=2,14=-4,25=1,30=1,70=2,71=2,74=-5,75=-5,116=1,140=1/1,2,3;
 4/5=101/1;
 5/5=2,38=6,98=1/2;
 8/6=4,10=90,11=11/1;
 11/6=1,8=1,9=11,15=111,16=1/1,2,10;
 10/6=1/2;
 6/7=3,28=1/1;
 7/8=1,10=1,25=1/1,2,3,16;
 1/7=10,10=4,30=1/3;
 99//99;
 Leave Link    1 at Sat Sep 12 17:34:47 2026, MaxMem=  1073741824 cpu:               0.0 elap:               0.0
 (Enter /app1/ia32-64/Gaussian/Rev-C.02/g16/l101.exe)
 Structure from the checkpoint file:  "ch2fcl_b3lyp_ccpvdz.chk"
 ----------------------------------------------------------------------
 CH2FCl opt+freq / B3LYP/cc-pVDZ (reasonable accuracy) -- also used for
  density/ESP map and BDE
 ----------------------------------------------------------------------
 Charge =  0 Multiplicity = 1
 Redundant internal coordinates found in file.  (old form).
 C,0,-0.0180545537,0.,0.0057349499
 F,0,-0.0197350077,0.,1.3666842207
 Cl,0,1.6707004279,0.,-0.6255541745
 H,0,-0.5017211508,-0.9132143148,-0.3671323676
 H,0,-0.5017211508,0.9132143148,-0.3671323676
 Recover connectivity data from disk.
 ITRead=  0  0  0  0  0
 MicOpt= -1 -1 -1 -1 -1
 NAtoms=      5 NQM=        5 NQMF=       0 NMMI=      0 NMMIF=      0
                NMic=       0 NMicF=      0.
                    Isotopes and Nuclear Properties:
 (Nuclear quadrupole moments (NQMom) in fm**2, nuclear magnetic moments (NMagM)
  in nuclear magnetons)

  Atom         1           2           3           4           5
 IAtWgt=          12          19          35           1           1
 AtmWgt=  12.0000000  18.9984032  34.9688527   1.0078250   1.0078250
 NucSpn=           0           1           3           1           1
 AtZEff=   3.6000000   6.7500000  14.2400000   1.0000000   1.0000000
 NQMom=    0.0000000   0.0000000  -8.1650000   0.0000000   0.0000000
 NMagM=    0.0000000   2.6288670   0.8218740   2.7928460   2.7928460
 AtZNuc=   6.0000000   9.0000000  17.0000000   1.0000000   1.0000000
 Leave Link  101 at Sat Sep 12 17:34:48 2026, MaxMem=  1073741824 cpu:               0.2 elap:               0.3
 (Enter /app1/ia32-64/Gaussian/Rev-C.02/g16/l103.exe)

 GradGradGradGradGradGradGradGradGradGradGradGradGradGradGradGradGradGrad
 Berny optimization.
 Initialization pass.
                           ----------------------------
                           !    Initial Parameters    !
                           ! (Angstroms and Degrees)  !
 --------------------------                            --------------------------
 ! Name  Definition              Value          Derivative Info.                !
 --------------------------------------------------------------------------------
 ! R1    R(1,2)                  1.361          calculate D2E/DX2 analytically  !
 ! R2    R(1,3)                  1.8029         calculate D2E/DX2 analytically  !
 ! R3    R(1,4)                  1.0986         calculate D2E/DX2 analytically  !
 ! R4    R(1,5)                  1.0986         calculate D2E/DX2 analytically  !
 ! A1    A(2,1,3)              110.5675         calculate D2E/DX2 analytically  !
 ! A2    A(2,1,4)              109.8073         calculate D2E/DX2 analytically  !
 ! A3    A(2,1,5)              109.8073         calculate D2E/DX2 analytically  !
 ! A4    A(3,1,4)              107.0702         calculate D2E/DX2 analytically  !
 ! A5    A(3,1,5)              107.0702         calculate D2E/DX2 analytically  !
 ! A6    A(4,1,5)              112.4552         calculate D2E/DX2 analytically  !
 ! D1    D(2,1,4,3)           -120.0798         calculate D2E/DX2 analytically  !
 ! D2    D(2,1,5,3)            120.0798         calculate D2E/DX2 analytically  !
 ! D3    D(2,1,5,4)           -122.5864         calculate D2E/DX2 analytically  !
 ! D4    D(3,1,5,4)            117.3338         calculate D2E/DX2 analytically  !
 --------------------------------------------------------------------------------
 Trust Radius=3.00D-01 FncErr=1.00D-07 GrdErr=1.00D-07 EigMax=2.50D+02 EigMin=1.00D-04
 Number of steps in this run=      2 maximum allowed number of steps=      2.
 GradGradGradGradGradGradGradGradGradGradGradGradGradGradGradGradGradGrad

 Leave Link  103 at Sat Sep 12 17:34:48 2026, MaxMem=  1073741824 cpu:               0.0 elap:               0.0
 (Enter /app1/ia32-64/Gaussian/Rev-C.02/g16/l202.exe)
                          Input orientation:                          
 ---------------------------------------------------------------------
 Center     Atomic      Atomic             Coordinates (Angstroms)
 Number     Number       Type             X           Y           Z
 ---------------------------------------------------------------------
      1          6           0       -0.018055    0.000000    0.005735
      2          9           0       -0.019735   -0.000000    1.366684
      3         17           0        1.670700   -0.000000   -0.625554
      4          1           0       -0.501721   -0.913214   -0.367132
      5          1           0       -0.501721    0.913214   -0.367132
 ---------------------------------------------------------------------
                    Distance matrix (angstroms):
                    1          2          3          4          5
     1  C    0.000000
     2  F    1.360950   0.000000
     3  Cl   1.802892   2.612774   0.000000
     4  H    1.098601   2.018017   2.370687   0.000000
     5  H    1.098601   2.018017   2.370687   1.826429   0.000000
 Stoichiometry    CH2ClF
 Framework group  CS[SG(CClF),X(H2)]
 Deg. of freedom     6
 Full point group                 CS      NOp   2
 RotChk:  IX=0 Diff= 1.67D-15
 Largest Abelian subgroup         CS      NOp   2
 Largest concise Abelian subgroup CS      NOp   2
                         Standard orientation:                         
 ---------------------------------------------------------------------
 Center     Atomic      Atomic             Coordinates (Angstroms)
 Number     Number       Type             X           Y           Z
 ---------------------------------------------------------------------
      1          6           0        0.000000    0.815797   -0.000000
      2          9           0        1.360470    0.779652   -0.000000
      3         17           0       -0.677981   -0.854760    0.000000
      4          1           0       -0.359281    1.309640    0.913214
      5          1           0       -0.359281    1.309640   -0.913214
 ---------------------------------------------------------------------
 Rotational constants (GHZ):          41.8300410           5.5422995           5.0585665
 Leave Link  202 at Sat Sep 12 17:34:48 2026, MaxMem=  1073741824 cpu:               0.0 elap:               0.0
 (Enter /app1/ia32-64/Gaussian/Rev-C.02/g16/l301.exe)
 Standard basis: CC-pVDZ (5D, 7F)
 Ernie: Thresh=  0.10000D-02 Tol=  0.10000D-05 Strict=F.
 Ernie:  14 primitive shells out of 104 were deleted.
 There are    41 symmetry adapted cartesian basis functions of A'  symmetry.
 There are    18 symmetry adapted cartesian basis functions of A"  symmetry.
 There are    38 symmetry adapted basis functions of A'  symmetry.
 There are    18 symmetry adapted basis functions of A"  symmetry.
    56 basis functions,   151 primitive gaussians,    59 cartesian basis functions
    17 alpha electrons       17 beta electrons
       nuclear repulsion energy       100.3025619417 Hartrees.
 IExCor=  402 DFT=T Ex+Corr=B3LYP ExCW=0 ScaHFX=  0.200000
 ScaDFX=  0.800000  0.720000  1.000000  0.810000 ScalE2=  1.000000  1.000000
 IRadAn=      5 IRanWt=     -1 IRanGd=            0 ICorTp=0 IEmpDi=  4
 NAtoms=    5 NActive=    5 NUniq=    4 SFac= 1.56D+00 NAtFMM=   60 NAOKFM=F Big=F
 Integral buffers will be    131072 words long.
 Raffenetti 2 integral format.
 Two-electron integral symmetry is turned on.
 Leave Link  301 at Sat Sep 12 17:34:48 2026, MaxMem=  1073741824 cpu:               0.0 elap:               0.0
 (Enter /app1/ia32-64/Gaussian/Rev-C.02/g16/l302.exe)
 NPDir=0 NMtPBC=     1 NCelOv=     1 NCel=       1 NClECP=     1 NCelD=      1
         NCelK=      1 NCelE2=     1 NClLst=     1 CellRange=     0.0.
 One-electron integrals computed using PRISM.
 One-electron integral symmetry used in STVInt
 NBasis=    56 RedAO= T EigKep=  1.55D-02  NBF=    38    18
 NBsUse=    56 1.00D-06 EigRej= -1.00D+00 NBFU=    38    18
 Precomputing XC quadrature grid using
 IXCGrd= 4 IRadAn=           5 IRanWt=          -1 IRanGd=           0 AccXCQ= 0.00D+00.
 Generated NRdTot=       0 NPtTot=           0 NUsed=           0 NTot=          32
 NSgBfM=    59    59    59    59    59 MxSgAt=     5 MxSgA2=     5.
 Leave Link  302 at Sat Sep 12 17:34:48 2026, MaxMem=  1073741824 cpu:               0.1 elap:               0.1
 (Enter /app1/ia32-64/Gaussian/Rev-C.02/g16/l303.exe)
 DipDrv:  MaxL=1.
 Leave Link  303 at Sat Sep 12 17:34:48 2026, MaxMem=  1073741824 cpu:               0.0 elap:               0.0
 (Enter /app1/ia32-64/Gaussian/Rev-C.02/g16/l401.exe)
 Initial guess from the checkpoint file:  "ch2fcl_b3lyp_ccpvdz.chk"
 B after Tr=     0.000000    0.000000    0.000000
         Rot=    1.000000    0.000000    0.000000    0.000000 Ang=   0.00 deg.
 Guess basis will be translated and rotated to current coordinates.
 JPrj=2 DoOrth=T DoCkMO=T.
 Initial guess orbital symmetries:
       Occupied  (A') (A') (A') (A') (A') (A') (A") (A') (A') (A')
                 (A") (A') (A') (A") (A') (A') (A")
       Virtual   (A') (A') (A") (A') (A') (A") (A') (A') (A") (A')
                 (A') (A") (A') (A') (A") (A') (A") (A') (A') (A")
                 (A') (A') (A") (A') (A") (A') (A") (A') (A') (A")
                 (A') (A') (A") (A') (A") (A') (A') (A") (A')
 The electronic state of the initial guess is 1-A'.
 Leave Link  401 at Sat Sep 12 17:34:49 2026, MaxMem=  1073741824 cpu:               0.1 elap:               0.1
 (Enter /app1/ia32-64/Gaussian/Rev-C.02/g16/l502.exe)
 Keep R1 ints in memory in symmetry-blocked form, NReq=2160176.
 FoFCou: FMM=F IPFlag=           0 FMFlag=           0 FMFlg1=           0
         NFxFlg=           0 DoJE=F BraDBF=F KetDBF=F FulRan=T
         wScrn=  0.000000 ICntrl=       600 IOpCl=  0 I1Cent=           0 NGrid=           0
         NMat0=    1 NMatS0=   1596 NMatT0=    0 NMatD0=    1 NMtDS0=    0 NMtDT0=    0
 Petite list used in FoFCou.
 Closed shell SCF:
 Using DIIS extrapolation, IDIIS=  1040.
 NGot=  1073741824 LenX=  1073079033 LenY=  1073075111
 Requested convergence on RMS density matrix=1.00D-08 within 128 cycles.
 Requested convergence on MAX density matrix=1.00D-06.
 Requested convergence on             energy=1.00D-06.
 No special actions if energy rises.

 Cycle   1  Pass 1  IDiag  1:
 E= -599.362052522336    
 DIIS: error= 2.52D-09 at cycle   1 NSaved=   1.
 NSaved= 1 IEnMin= 1 EnMin= -599.362052522336     IErMin= 1 ErrMin= 2.52D-09
 ErrMax= 2.52D-09  0.00D+00 EMaxC= 1.00D-01 BMatC= 6.18D-16 BMatP= 6.18D-16
 IDIUse=1 WtCom= 1.00D+00 WtEn= 0.00D+00
 Coeff-Com:  0.100D+01
 Coeff:      0.100D+01
 Gap=     0.324 Goal=   None    Shift=    0.000
 RMSDP=9.04D-10 MaxDP=1.75D-08              OVMax= 1.44D-08

 SCF Done:  E(RB3LYP) =  -599.362052522     A.U. after    1 cycles
            NFock=  1  Conv=0.90D-09     -V/T= 2.0027
 KE= 5.977236508570D+02 PE=-1.624441604481D+03 EE= 3.270533391601D+02
 Leave Link  502 at Sat Sep 12 17:34:49 2026, MaxMem=  1073741824 cpu:               0.3 elap:               0.3
 (Enter /app1/ia32-64/Gaussian/Rev-C.02/g16/l801.exe)
 DoSCS=F DFT=T ScalE2(SS,OS)=  1.000000  1.000000
 Range of M.O.s used for correlation:     1    56
 NBasis=    56 NAE=    17 NBE=    17 NFC=     0 NFV=     0
 NROrb=     56 NOA=    17 NOB=    17 NVA=    39 NVB=    39
 Leave Link  801 at Sat Sep 12 17:34:49 2026, MaxMem=  1073741824 cpu:               0.0 elap:               0.1
 (Enter /app1/ia32-64/Gaussian/Rev-C.02/g16/l1101.exe)
 Using compressed storage, NAtomX=     5.
 Will process      6 centers per pass.
 Leave Link 1101 at Sat Sep 12 17:34:49 2026, MaxMem=  1073741824 cpu:               0.1 elap:               0.1
 (Enter /app1/ia32-64/Gaussian/Rev-C.02/g16/l1102.exe)
 Symmetrizing basis deriv contribution to polar:
 IMax=3 JMax=2 DiffMx= 0.00D+00
 Leave Link 1102 at Sat Sep 12 17:34:50 2026, MaxMem=  1073741824 cpu:               0.0 elap:               0.0
 (Enter /app1/ia32-64/Gaussian/Rev-C.02/g16/l1110.exe)
 Forming Gx(P) for the SCF density, NAtomX=     5.
 Integral derivatives from FoFJK, PRISM(SPDF).
 Do as many integral derivatives as possible in FoFJK.
 G2DrvN: MDV=    1073741173.
 G2DrvN: will do     6 centers at a time, making    1 passes.
 Calling FoFCou, ICntrl=  3107 FMM=F I1Cent=   0 AccDes= 0.00D+00.
 FoFJK:  IHMeth= 1 ICntrl=    3107 DoSepK=F KAlg= 0 I1Cent=           0 FoldK=F
 IRaf=         0 NMat=       1 IRICut=       1 DoRegI=T DoRafI=F ISym2E= 1 IDoP0=0 IntGTp=1.
 FoFCou: FMM=F IPFlag=           0 FMFlag=      100000 FMFlg1=           0
         NFxFlg=           0 DoJE=F BraDBF=F KetDBF=F FulRan=T
         wScrn=  0.000000 ICntrl=      3107 IOpCl=  0 I1Cent=           0 NGrid=           0
         NMat0=    1 NMatS0=      1 NMatT0=    0 NMatD0=    1 NMtDS0=    0 NMtDT0=    0
 Petite list used in FoFCou.
 End of G2Drv F.D. properties file   721 does not exist.
 End of G2Drv F.D. properties file   722 does not exist.
 End of G2Drv F.D. properties file   788 does not exist.
 Leave Link 1110 at Sat Sep 12 17:34:51 2026, MaxMem=  1073741824 cpu:               1.3 elap:               1.3
 (Enter /app1/ia32-64/Gaussian/Rev-C.02/g16/l1002.exe)
 Minotr:  Closed shell wavefunction.
          IDoAtm=11111
          Direct CPHF calculation.
          Differentiating once with respect to electric field.
                with respect to dipole field.
          Differentiating once with respect to nuclear coordinates.
          Using symmetry in CPHF.
          Requested convergence is 1.0D-08 RMS, and 1.0D-07 maximum.
          Secondary convergence is 1.0D-12 RMS, and 1.0D-12 maximum.
          NewPWx=T KeepS1=F KeepF1=F KeepIn=T MapXYZ=F SortEE=F KeepMc=T.
         1449 words used for storage of precomputed grid.
 Keep R1 ints in memory in symmetry-blocked form, NReq=2161358.
 FoFCou: FMM=F IPFlag=           0 FMFlag=           0 FMFlg1=           0
         NFxFlg=           0 DoJE=F BraDBF=F KetDBF=F FulRan=T
         wScrn=  0.000000 ICntrl=       600 IOpCl=  0 I1Cent=           0 NGrid=           0
         NMat0=    1 NMatS0=   1596 NMatT0=    0 NMatD0=    1 NMtDS0=    0 NMtDT0=    0
 Petite list used in FoFCou.
          MDV=    1073741824 using IRadAn=       1.
          Solving linear equations simultaneously, MaxMat=       0.
          There are    15 degrees of freedom in the 1st order CPHF.  IDoFFX=4 NUNeed=    15.
     15 vectors produced by pass  0 Test12= 4.42D-15 6.67D-09 XBig12= 1.62D+01 2.11D+00.
 AX will form    15 AO Fock derivatives at one time.
     15 vectors produced by pass  1 Test12= 4.42D-15 6.67D-09 XBig12= 1.87D+00 3.72D-01.
     15 vectors produced by pass  2 Test12= 4.42D-15 6.67D-09 XBig12= 4.49D-02 6.82D-02.
     15 vectors produced by pass  3 Test12= 4.42D-15 6.67D-09 XBig12= 1.50D-04 3.35D-03.
     15 vectors produced by pass  4 Test12= 4.42D-15 6.67D-09 XBig12= 1.93D-07 1.11D-04.
     10 vectors produced by pass  5 Test12= 4.42D-15 6.67D-09 XBig12= 1.12D-10 2.27D-06.
      4 vectors produced by pass  6 Test12= 4.42D-15 6.67D-09 XBig12= 5.57D-14 6.18D-08.
 InvSVY:  IOpt=1 It=  1 EMax= 1.78D-15
 Solved reduced A of dimension    89 with    15 vectors.
 FullF1:  Do perturbations      1 to      15.
 Isotropic polarizability for W=    0.000000       21.10 Bohr**3.
 End of Minotr F.D. properties file   721 does not exist.
 End of Minotr F.D. properties file   722 does not exist.
 End of Minotr F.D. properties file   788 does not exist.
 Leave Link 1002 at Sat Sep 12 17:34:53 2026, MaxMem=  1073741824 cpu:               2.4 elap:               2.5
 (Enter /app1/ia32-64/Gaussian/Rev-C.02/g16/l601.exe)
 Copying SCF densities to generalized density rwf, IOpCl= 0 IROHF=0.

 **********************************************************************

            Population analysis using the SCF Density.

 **********************************************************************

 Orbital symmetries:
       Occupied  (A') (A') (A') (A') (A') (A') (A") (A') (A') (A')
                 (A") (A') (A') (A") (A') (A') (A")
       Virtual   (A') (A') (A") (A') (A') (A") (A') (A') (A") (A')
                 (A') (A") (A') (A') (A") (A') (A") (A') (A') (A")
                 (A') (A') (A") (A') (A") (A') (A") (A') (A') (A")
                 (A') (A') (A") (A') (A") (A') (A') (A") (A')
 The electronic state is 1-A'.
 Alpha  occ. eigenvalues -- -101.54185 -24.71019 -10.33030  -9.46085  -7.22337
 Alpha  occ. eigenvalues --   -7.21381  -7.21321  -1.22937  -0.85797  -0.68594
 Alpha  occ. eigenvalues --   -0.52717  -0.52700  -0.48756  -0.38279  -0.37401
 Alpha  occ. eigenvalues --   -0.32210  -0.30751
 Alpha virt. eigenvalues --    0.01648   0.06973   0.10197   0.10917   0.40169
 Alpha virt. eigenvalues --    0.43443   0.45727   0.49218   0.55215   0.55487
 Alpha virt. eigenvalues --    0.56395   0.59112   0.68471   0.71475   0.71659
 Alpha virt. eigenvalues --    0.73874   0.77344   0.91730   1.05061   1.06545
 Alpha virt. eigenvalues --    1.15187   1.22744   1.26513   1.34065   1.53321
 Alpha virt. eigenvalues --    1.62158   1.62803   1.67137   1.77667   1.80729
 Alpha virt. eigenvalues --    1.99165   2.27263   2.35198   2.42781   3.57321
 Alpha virt. eigenvalues --    3.57513   3.76660   3.81925   4.01507
     Molecular Orbital Coefficients:
                           1         2         3         4         5
                           O         O         O         O         O
     Eigenvalues --  -101.54185 -24.71019 -10.33030  -9.46085  -7.22337
   1 1   C  1S         -0.00000  -0.00009   0.99646  -0.00014   0.00002
   2        2S         -0.00004  -0.00031   0.02874  -0.00129   0.00045
   3        3S          0.00016   0.00515  -0.01413   0.00737  -0.00070
   4        4PX         0.00000   0.00074   0.00050   0.00009  -0.00002
   5        4PY        -0.00000   0.00012   0.00043   0.00035   0.00011
   6        4PZ         0.00000   0.00000   0.00000   0.00000   0.00000
   7        5PX        -0.00003   0.00249   0.00181  -0.00105   0.00025
   8        5PY        -0.00011  -0.00056   0.00138  -0.00534   0.00059
   9        5PZ         0.00000   0.00000   0.00000   0.00000   0.00000
  10        6D 0       -0.00001  -0.00009   0.00087   0.00033   0.00035
  11        6D+1        0.00000   0.00000   0.00000   0.00000   0.00000
  12        6D-1        0.00000   0.00000   0.00000   0.00000   0.00000
  13        6D+2       -0.00001   0.00033   0.00071   0.00057   0.00036
  14        6D-2        0.00001   0.00000  -0.00061  -0.00043  -0.00037
  15 2   F  1S          0.00000   0.99662   0.00004   0.00003  -0.00000
  16        2S          0.00001   0.02076   0.00054   0.00022  -0.00009
  17        3S         -0.00003  -0.01025  -0.00100  -0.00134   0.00014
  18        4PX        -0.00000  -0.00110   0.00003   0.00009   0.00005
  19        4PY        -0.00000   0.00004   0.00006   0.00001   0.00006
  20        4PZ         0.00000   0.00000   0.00000   0.00000   0.00000
  21        5PX         0.00001   0.00256   0.00183   0.00049  -0.00010
  22        5PY         0.00001  -0.00003  -0.00030   0.00044  -0.00021
  23        5PZ         0.00000   0.00000   0.00000   0.00000   0.00000
  24        6D 0       -0.00000   0.00008   0.00036  -0.00004  -0.00000
  25        6D+1        0.00000   0.00000   0.00000   0.00000   0.00000
  26        6D-1        0.00000   0.00000   0.00000   0.00000   0.00000
  27        6D+2       -0.00000  -0.00016  -0.00067  -0.00010  -0.00003
  28        6D-2       -0.00000   0.00001   0.00001  -0.00006  -0.00001
  29 3   Cl 1S          1.00138   0.00001  -0.00004  -0.27778   0.00166
  30        2S         -0.00493   0.00013  -0.00023   1.03651  -0.00631
  31        3S          0.00035   0.00034  -0.00075   0.05300  -0.00003
  32        4S         -0.00031  -0.00116   0.00357  -0.02546   0.00068
  33        5PX         0.00002   0.00001   0.00002   0.00200   0.36856
  34        5PY         0.00004   0.00003   0.00003   0.00533   0.92610
  35        5PZ         0.00000   0.00000   0.00000   0.00000   0.00000
  36        6PX        -0.00000  -0.00003   0.00004   0.00050   0.00370
  37        6PY        -0.00001  -0.00013   0.00017   0.00131   0.00928
  38        6PZ         0.00000   0.00000   0.00000   0.00000   0.00000
  39        7PX        -0.00004  -0.00072   0.00062  -0.00230  -0.00060
  40        7PY        -0.00009  -0.00040   0.00161  -0.00542  -0.00150
  41        7PZ         0.00000   0.00000   0.00000   0.00000   0.00000
  42        8D 0        0.00001   0.00007   0.00009   0.00021  -0.00033
  43        8D+1        0.00000   0.00000   0.00000   0.00000   0.00000
  44        8D-1        0.00000   0.00000   0.00000   0.00000   0.00000
  45        8D+2        0.00001  -0.00002   0.00014   0.00027  -0.00042
  46        8D-2       -0.00002  -0.00027  -0.00019  -0.00033   0.00039
  47 4   H  1S         -0.00001  -0.00050  -0.00148  -0.00094  -0.00008
  48        2S          0.00001  -0.00027   0.00262   0.00122   0.00018
  49        3PX         0.00000  -0.00033  -0.00074   0.00004  -0.00006
  50        3PY         0.00000   0.00011   0.00077   0.00022  -0.00006
  51        3PZ        -0.00001   0.00002   0.00136  -0.00012   0.00006
  52 5   H  1S         -0.00001  -0.00050  -0.00148  -0.00094  -0.00008
  53        2S          0.00001  -0.00027   0.00262   0.00122   0.00018
  54        3PX         0.00000  -0.00033  -0.00074   0.00004  -0.00006
  55        3PY         0.00000   0.00011   0.00077   0.00022  -0.00006
  56        3PZ         0.00001  -0.00002  -0.00136   0.00012  -0.00006
                           6         7         8         9        10
                           O         O         O         O         O
     Eigenvalues --    -7.21381  -7.21321  -1.22937  -0.85797  -0.68594
   1 1   C  1S         -0.00000   0.00000  -0.06215  -0.08858  -0.15001
   2        2S         -0.00002   0.00000   0.12350   0.19310   0.34787
   3        3S          0.00014   0.00000   0.03532   0.10561   0.20126
   4        4PX        -0.00002   0.00000   0.11294  -0.06556  -0.00203
   5        4PY        -0.00000   0.00000  -0.00970  -0.09300   0.09758
   6        4PZ         0.00000  -0.00002   0.00000   0.00000   0.00000
   7        5PX         0.00027   0.00000   0.02322  -0.02625  -0.03271
   8        5PY         0.00004   0.00000  -0.00129  -0.02542   0.03581
   9        5PZ         0.00000   0.00011   0.00000   0.00000   0.00000
  10        6D 0        0.00002   0.00000  -0.01908  -0.00930   0.00011
  11        6D+1        0.00000   0.00006   0.00000   0.00000   0.00000
  12        6D-1        0.00000   0.00007   0.00000   0.00000   0.00000
  13        6D+2        0.00008   0.00000   0.02501  -0.01479   0.00649
  14        6D-2        0.00006   0.00000  -0.00073   0.01070   0.00081
  15 2   F  1S          0.00000   0.00000  -0.21673   0.04006   0.06106
  16        2S          0.00000   0.00000   0.46321  -0.09035  -0.13714
  17        3S         -0.00010   0.00000   0.48537  -0.10705  -0.19005
  18        4PX         0.00001   0.00000  -0.09828  -0.05081  -0.22474
  19        4PY         0.00004   0.00000   0.00267  -0.01794   0.04417
  20        4PZ         0.00000  -0.00000   0.00000   0.00000   0.00000
  21        5PX         0.00001   0.00000  -0.03372  -0.03255  -0.13504
  22        5PY        -0.00015   0.00000   0.00155  -0.00784   0.02587
  23        5PZ         0.00000  -0.00002   0.00000   0.00000   0.00000
  24        6D 0       -0.00000   0.00000  -0.00493  -0.00149  -0.00434
  25        6D+1        0.00000   0.00001   0.00000   0.00000   0.00000
  26        6D-1        0.00000  -0.00001   0.00000   0.00000   0.00000
  27        6D+2       -0.00001   0.00000   0.00814   0.00247   0.00804
  28        6D-2        0.00002   0.00000  -0.00027   0.00146  -0.00286
  29 3   Cl 1S         -0.00003   0.00000   0.00290   0.07328  -0.04111
  30        2S          0.00011   0.00000  -0.01226  -0.25915   0.14384
  31        3S         -0.00003   0.00000   0.01346   0.43644  -0.25254
  32        4S          0.00009   0.00000   0.02319   0.42172  -0.27611
  33        5PX         0.92646   0.00000  -0.00420  -0.01518  -0.01138
  34        5PY        -0.36870   0.00000  -0.00550  -0.04235  -0.03958
  35        5PZ         0.00000   0.99714   0.00000   0.00000   0.00000
  36        6PX         0.00816   0.00000   0.00878   0.03452   0.02560
  37        6PY        -0.00324   0.00000   0.01185   0.09523   0.08791
  38        6PZ         0.00000   0.00873   0.00000   0.00000   0.00000
  39        7PX        -0.00150   0.00000   0.00453   0.00812   0.01556
  40        7PY         0.00064   0.00000   0.00835   0.02736   0.04501
  41        7PZ         0.00000  -0.00159   0.00000   0.00000   0.00000
  42        8D 0        0.00000   0.00000  -0.00396  -0.01505  -0.00768
  43        8D+1        0.00000   0.00010   0.00000   0.00000   0.00000
  44        8D-1        0.00000   0.00028   0.00000   0.00000   0.00000
  45        8D+2        0.00019   0.00000  -0.00246  -0.01978  -0.01313
  46        8D-2        0.00022   0.00000   0.00621   0.01708   0.00884
  47 4   H  1S          0.00001  -0.00004   0.02631   0.06845   0.18881
  48        2S         -0.00008   0.00016   0.00368   0.00143   0.01533
  49        3PX        -0.00001  -0.00004   0.00436   0.00228   0.00759
  50        3PY         0.00004  -0.00008  -0.00355  -0.00624  -0.00716
  51        3PZ        -0.00000  -0.00001  -0.00567  -0.00827  -0.01829
  52 5   H  1S          0.00001   0.00004   0.02631   0.06845   0.18881
  53        2S         -0.00008  -0.00016   0.00368   0.00143   0.01533
  54        3PX        -0.00001   0.00004   0.00436   0.00228   0.00759
  55        3PY         0.00004   0.00008  -0.00355  -0.00624  -0.00716
  56        3PZ         0.00000  -0.00001   0.00567   0.00827   0.01829
                          11        12        13        14        15
                           O         O         O         O         O
     Eigenvalues --    -0.52717  -0.52700  -0.48756  -0.38279  -0.37401
   1 1   C  1S          0.00000  -0.01522   0.01853   0.00000   0.00795
   2        2S          0.00000   0.01425  -0.04236   0.00000  -0.01001
   3        3S          0.00000   0.05897  -0.08293   0.00000   0.00699
   4        4PX         0.00000  -0.34461   0.13106   0.00000   0.00710
   5        4PY         0.00000   0.14713   0.27731   0.00000  -0.24849
   6        4PZ         0.39603   0.00000   0.00000  -0.22331   0.00000
   7        5PX         0.00000  -0.06431   0.04452   0.00000   0.01513
   8        5PY         0.00000   0.05554   0.14071   0.00000  -0.03918
   9        5PZ         0.15850   0.00000   0.00000  -0.01886   0.00000
  10        6D 0        0.00000   0.02167   0.00329   0.00000  -0.01629
  11        6D+1        0.01200   0.00000   0.00000   0.04112   0.00000
  12        6D-1        0.00172   0.00000   0.00000   0.00230   0.00000
  13        6D+2        0.00000  -0.02097   0.02023   0.00000  -0.00748
  14        6D-2        0.00000   0.01387   0.01670   0.00000   0.03988
  15 2   F  1S          0.00000  -0.04154   0.00923   0.00000   0.00015
  16        2S          0.00000   0.08295  -0.01776   0.00000   0.00312
  17        3S          0.00000   0.16565  -0.03942   0.00000  -0.00910
  18        4PX         0.00000   0.47552  -0.14265   0.00000  -0.00745
  19        4PY         0.00000   0.13176   0.42298   0.00000   0.48486
  20        4PZ         0.35721   0.00000   0.00000   0.55783   0.00000
  21        5PX         0.00000   0.28422  -0.08752   0.00000   0.00144
  22        5PY         0.00000   0.08333   0.26773   0.00000   0.33849
  23        5PZ         0.22358   0.00000   0.00000   0.38409   0.00000
  24        6D 0        0.00000   0.00656  -0.00183   0.00000  -0.00052
  25        6D+1       -0.01310   0.00000   0.00000  -0.00694   0.00000
  26        6D-1        0.00071   0.00000   0.00000   0.00008   0.00000
  27        6D+2        0.00000  -0.01124   0.00244   0.00000  -0.00043
  28        6D-2        0.00000  -0.00426  -0.01258   0.00000  -0.00558
  29 3   Cl 1S          0.00000  -0.00286   0.02108   0.00000  -0.00453
  30        2S          0.00000   0.00931  -0.08114   0.00000   0.02301
  31        3S          0.00000  -0.01930   0.12157   0.00000  -0.01775
  32        4S          0.00000  -0.01938   0.23665   0.00000  -0.06732
  33        5PX         0.00000   0.03233   0.06528   0.00000  -0.04914
  34        5PY         0.00000  -0.02397   0.12179   0.00000  -0.16124
  35        5PZ        -0.04592   0.00000   0.00000   0.09112   0.00000
  36        6PX         0.00000  -0.07598  -0.15131   0.00000   0.12126
  37        6PY         0.00000   0.05389  -0.28509   0.00000   0.38750
  38        6PZ         0.10620   0.00000   0.00000  -0.21599   0.00000
  39        7PX         0.00000  -0.04610  -0.08436   0.00000   0.05459
  40        7PY         0.00000   0.03509  -0.13115   0.00000   0.25259
  41        7PZ         0.05797   0.00000   0.00000  -0.15619   0.00000
  42        8D 0        0.00000   0.00049   0.01790   0.00000  -0.01208
  43        8D+1        0.00883   0.00000   0.00000  -0.00377   0.00000
  44        8D-1        0.02286   0.00000   0.00000  -0.02276   0.00000
  45        8D+2        0.00000  -0.01693   0.01633   0.00000  -0.02060
  46        8D-2        0.00000  -0.01532  -0.02202   0.00000   0.01653
  47 4   H  1S          0.22143   0.14115   0.02932  -0.19388  -0.13147
  48        2S          0.05286   0.04951   0.01499  -0.10700  -0.07843
  49        3PX         0.00588  -0.00656   0.00385  -0.00296  -0.00245
  50        3PY        -0.00899  -0.00133   0.00422   0.00683  -0.00539
  51        3PZ        -0.00697  -0.01174  -0.00332   0.00305   0.00862
  52 5   H  1S         -0.22143   0.14115   0.02932   0.19388  -0.13147
  53        2S         -0.05286   0.04951   0.01499   0.10700  -0.07843
  54        3PX        -0.00588  -0.00656   0.00385   0.00296  -0.00245
  55        3PY         0.00899  -0.00133   0.00422  -0.00683  -0.00539
  56        3PZ        -0.00697   0.01174   0.00332   0.00305  -0.00862
                          16        17        18        19        20
                           O         O         V         V         V
     Eigenvalues --    -0.32210  -0.30751   0.01648   0.06973   0.10197
   1 1   C  1S         -0.00986   0.00000  -0.11230   0.04917   0.00000
   2        2S          0.02211   0.00000   0.23435  -0.04420   0.00000
   3        3S          0.03083   0.00000   1.28341  -1.15182   0.00000
   4        4PX        -0.01289   0.00000  -0.19836   0.12778   0.00000
   5        4PY         0.02486   0.00000  -0.37814  -0.40807   0.00000
   6        4PZ         0.00000  -0.17114   0.00000   0.00000  -0.43631
   7        5PX         0.04920   0.00000  -0.36072   0.37431   0.00000
   8        5PY         0.02405   0.00000  -0.44924  -0.83775   0.00000
   9        5PZ         0.00000  -0.02026   0.00000   0.00000  -1.19806
  10        6D 0        0.00652   0.00000   0.00868   0.01724   0.00000
  11        6D+1        0.00000   0.00466   0.00000   0.00000  -0.00227
  12        6D-1        0.00000  -0.02948   0.00000   0.00000   0.01902
  13        6D+2       -0.02579   0.00000   0.00943  -0.00134   0.00000
  14        6D-2       -0.01116   0.00000  -0.00148  -0.00746   0.00000
  15 2   F  1S          0.00854   0.00000  -0.00126   0.01853   0.00000
  16        2S         -0.01895   0.00000   0.00411  -0.03624   0.00000
  17        3S         -0.04947   0.00000   0.00614  -0.15133   0.00000
  18        4PX         0.11402   0.00000   0.05479   0.03373   0.00000
  19        4PY         0.10080   0.00000   0.11976   0.09793   0.00000
  20        4PZ         0.00000   0.12807   0.00000   0.00000   0.07949
  21        5PX         0.08055   0.00000   0.06210   0.03803   0.00000
  22        5PY         0.06830   0.00000   0.13088   0.13656   0.00000
  23        5PZ         0.00000   0.09017   0.00000   0.00000   0.14039
  24        6D 0        0.00046   0.00000  -0.00058   0.00343   0.00000
  25        6D+1        0.00000   0.00030   0.00000   0.00000   0.00710
  26        6D-1        0.00000  -0.00106   0.00000   0.00000   0.00261
  27        6D+2       -0.00244   0.00000   0.00320  -0.00068   0.00000
  28        6D-2       -0.00175   0.00000   0.00516   0.00624   0.00000
  29 3   Cl 1S          0.00051   0.00000  -0.01928  -0.01629   0.00000
  30        2S         -0.00110   0.00000   0.09766   0.05642   0.00000
  31        3S          0.00431   0.00000  -0.08491  -0.11178   0.00000
  32        4S          0.00936   0.00000  -0.59477  -0.34349   0.00000
  33        5PX        -0.24921   0.00000   0.05157   0.02935   0.00000
  34        5PY         0.09582   0.00000   0.14387   0.05348   0.00000
  35        5PZ         0.00000  -0.25344   0.00000   0.00000  -0.00323
  36        6PX         0.59886   0.00000  -0.12258  -0.06368   0.00000
  37        6PY        -0.22955   0.00000  -0.34966  -0.13007   0.00000
  38        6PZ         0.00000   0.60956   0.00000   0.00000  -0.00274
  39        7PX         0.44068   0.00000  -0.27460  -0.23289   0.00000
  40        7PY        -0.16568   0.00000  -0.69977  -0.30095   0.00000
  41        7PZ         0.00000   0.46339   0.00000   0.00000   0.12616
  42        8D 0        0.00163   0.00000  -0.05723  -0.00074   0.00000
  43        8D+1        0.00000   0.00297   0.00000   0.00000  -0.04186
  44        8D-1        0.00000   0.00329   0.00000   0.00000  -0.03629
  45        8D+2        0.00886   0.00000  -0.07678  -0.00302   0.00000
  46        8D-2        0.01410   0.00000   0.06282   0.04397   0.00000
  47 4   H  1S          0.03877  -0.16452  -0.04612   0.07686   0.08935
  48        2S          0.02003  -0.10255  -0.49395   1.16148   1.61958
  49        3PX        -0.00029  -0.00301  -0.00524   0.00274  -0.00084
  50        3PY         0.00035   0.00262  -0.01510  -0.01165   0.00511
  51        3PZ        -0.00122   0.00144   0.00398   0.00902   0.00085
  52 5   H  1S          0.03877   0.16452  -0.04612   0.07686  -0.08935
  53        2S          0.02003   0.10255  -0.49395   1.16148  -1.61958
  54        3PX        -0.00029   0.00301  -0.00524   0.00274   0.00084
  55        3PY         0.00035  -0.00262  -0.01510  -0.01165  -0.00511
  56        3PZ         0.00122   0.00144  -0.00398  -0.00902   0.00085
                          21        22        23        24        25
                           V         V         V         V         V
     Eigenvalues --     0.10917   0.40169   0.43443   0.45727   0.49218
   1 1   C  1S         -0.08329  -0.00342   0.00000   0.02791   0.02401
   2        2S          0.20243   0.16262   0.00000  -0.33493   0.11724
   3        3S          0.77619  -0.25829   0.00000   0.06481  -0.72516
   4        4PX         0.39663  -0.21215   0.00000  -0.90760   0.07103
   5        4PY         0.01572  -0.62994   0.00000   0.11274  -0.30513
   6        4PZ         0.00000   0.00000  -0.15340   0.00000   0.00000
   7        5PX         0.92686   0.26310   0.00000   1.33767  -0.01261
   8        5PY         0.12241   1.60037   0.00000  -0.21833   0.69621
   9        5PZ         0.00000   0.00000   0.96301   0.00000   0.00000
  10        6D 0        0.02470  -0.09884   0.00000  -0.04383   0.16788
  11        6D+1        0.00000   0.00000   0.05279   0.00000   0.00000
  12        6D-1        0.00000   0.00000  -0.20744   0.00000   0.00000
  13        6D+2       -0.04574  -0.02674   0.00000   0.14067   0.04018
  14        6D-2       -0.00013   0.00865   0.00000   0.00966  -0.11988
  15 2   F  1S          0.07849   0.00334   0.00000   0.00947  -0.01132
  16        2S         -0.13401  -0.00449   0.00000   0.08353   0.01108
  17        3S         -0.72942  -0.05871   0.00000  -0.62180   0.19207
  18        4PX         0.34698  -0.03397   0.00000  -0.33665   0.02753
  19        4PY        -0.03506  -0.10656   0.00000   0.02284   0.06064
  20        4PZ         0.00000   0.00000  -0.16365   0.00000   0.00000
  21        5PX         0.43627  -0.00427   0.00000   0.07357  -0.09431
  22        5PY        -0.03787  -0.20591   0.00000   0.01866  -0.02083
  23        5PZ         0.00000   0.00000  -0.14082   0.00000   0.00000
  24        6D 0       -0.00099  -0.00112   0.00000   0.02238  -0.00381
  25        6D+1        0.00000   0.00000  -0.00577   0.00000   0.00000
  26        6D-1        0.00000   0.00000  -0.00381   0.00000   0.00000
  27        6D+2        0.00201  -0.00665   0.00000  -0.03747   0.00599
  28        6D-2       -0.00108   0.00270   0.00000   0.00199   0.00904
  29 3   Cl 1S          0.00131   0.01416   0.00000  -0.00252   0.03594
  30        2S         -0.00625  -0.02592   0.00000  -0.01398  -0.02531
  31        3S          0.00701   0.14114   0.00000  -0.05121   0.40857
  32        4S          0.11822   0.63599   0.00000   0.17218   0.23408
  33        5PX         0.05530   0.02201   0.00000   0.05985   0.08272
  34        5PY        -0.01995   0.02572   0.00000   0.00379   0.20472
  35        5PZ         0.00000   0.00000   0.08695   0.00000   0.00000
  36        6PX        -0.14054  -0.06747   0.00000  -0.21409  -0.32615
  37        6PY         0.05665  -0.03762   0.00000  -0.01940  -0.81846
  38        6PZ         0.00000   0.00000  -0.28468   0.00000   0.00000
  39        7PX        -0.19451   0.29278   0.00000  -0.00105   0.54766
  40        7PY         0.12451   0.39172   0.00000   0.19704   1.33513
  41        7PZ         0.00000   0.00000  -0.07017   0.00000   0.00000
  42        8D 0       -0.00186  -0.17222   0.00000   0.01702   0.03436
  43        8D+1        0.00000   0.00000   0.15271   0.00000   0.00000
  44        8D-1        0.00000   0.00000   0.30420   0.00000   0.00000
  45        8D+2        0.05057  -0.19931   0.00000   0.04299   0.07143
  46        8D-2        0.08442   0.14083   0.00000   0.04558  -0.00425
  47 4   H  1S          0.01878  -0.33458  -0.62585   0.12903   0.34018
  48        2S         -0.24356  -0.02887   0.18916   0.12504  -0.38307
  49        3PX         0.02604  -0.01579   0.02178  -0.01452  -0.02625
  50        3PY         0.00079   0.01393  -0.05239  -0.02753  -0.01731
  51        3PZ         0.00823  -0.01912  -0.00956  -0.02351   0.07851
  52 5   H  1S          0.01878  -0.33458   0.62585   0.12903   0.34018
  53        2S         -0.24356  -0.02887  -0.18916   0.12504  -0.38307
  54        3PX         0.02604  -0.01579  -0.02178  -0.01452  -0.02625
  55        3PY         0.00079   0.01393   0.05239  -0.02753  -0.01731
  56        3PZ        -0.00823   0.01912  -0.00956   0.02351  -0.07851
                          26        27        28        29        30
                           V         V         V         V         V
     Eigenvalues --     0.55215   0.55487   0.56395   0.59112   0.68471
   1 1   C  1S          0.00000  -0.06399  -0.02156   0.00000  -0.00640
   2        2S          0.00000   0.39350   0.08835   0.00000  -0.10766
   3        3S          0.00000  -0.74074  -0.11644   0.00000   0.16975
   4        4PX         0.00000  -0.06066   0.14223   0.00000   0.00510
   5        4PY         0.00000   0.27738   0.05866   0.00000  -0.10635
   6        4PZ        -0.48321   0.00000   0.00000  -0.73294   0.00000
   7        5PX         0.00000   0.31383  -0.32904   0.00000  -0.36941
   8        5PY         0.00000  -0.13831   0.02563   0.00000   0.42811
   9        5PZ         1.24187   0.00000   0.00000   1.61495   0.00000
  10        6D 0        0.00000  -0.10127   0.00854   0.00000  -0.08312
  11        6D+1       -0.11286   0.00000   0.00000  -0.13709   0.00000
  12        6D-1        0.02880   0.00000   0.00000   0.20927   0.00000
  13        6D+2        0.00000   0.10385   0.08872   0.00000  -0.13011
  14        6D-2        0.00000  -0.00176   0.07099   0.00000  -0.27921
  15 2   F  1S          0.00000   0.02739   0.01181   0.00000  -0.01118
  16        2S          0.00000  -0.10525  -0.07956   0.00000  -0.00204
  17        3S          0.00000  -0.14851   0.09243   0.00000   0.20841
  18        4PX         0.00000   0.07033   0.06965   0.00000   0.05222
  19        4PY         0.00000  -0.02017   0.06802   0.00000   0.18839
  20        4PZ        -0.00257   0.00000   0.00000  -0.00221   0.00000
  21        5PX         0.00000   0.12383   0.05913   0.00000  -0.13174
  22        5PY         0.00000   0.01086  -0.02314   0.00000  -0.09695
  23        5PZ        -0.09500   0.00000   0.00000  -0.09450   0.00000
  24        6D 0        0.00000   0.00041  -0.00390   0.00000  -0.00724
  25        6D+1        0.00670   0.00000   0.00000   0.01063   0.00000
  26        6D-1        0.00109   0.00000   0.00000  -0.00281   0.00000
  27        6D+2        0.00000  -0.00264   0.00039   0.00000  -0.00162
  28        6D-2        0.00000  -0.00241   0.00166   0.00000   0.01207
  29 3   Cl 1S          0.00000  -0.02693  -0.01324   0.00000  -0.03609
  30        2S          0.00000  -0.05980  -0.02363   0.00000  -0.08906
  31        3S          0.00000  -0.42135  -0.19900   0.00000  -0.57880
  32        4S          0.00000   0.49120   0.16591   0.00000   0.75808
  33        5PX         0.00000  -0.03794   0.25999   0.00000   0.07384
  34        5PY         0.00000   0.17610  -0.05303   0.00000  -0.01797
  35        5PZ        -0.23698   0.00000   0.00000   0.15963   0.00000
  36        6PX         0.00000   0.14149  -1.04513   0.00000  -0.28877
  37        6PY         0.00000  -0.69977   0.21068   0.00000   0.06351
  38        6PZ         0.94889   0.00000   0.00000  -0.63785   0.00000
  39        7PX         0.00000  -0.11362   1.15848   0.00000   0.37584
  40        7PY         0.00000   0.79866  -0.26141   0.00000   0.04461
  41        7PZ        -1.14221   0.00000   0.00000   0.52466   0.00000
  42        8D 0        0.00000   0.08018   0.04153   0.00000  -0.19069
  43        8D+1        0.14345   0.00000   0.00000   0.07809   0.00000
  44        8D-1        0.23208   0.00000   0.00000  -0.09447   0.00000
  45        8D+2        0.00000   0.07301  -0.16563   0.00000   0.68006
  46        8D-2        0.00000  -0.14404  -0.28130   0.00000   0.25641
  47 4   H  1S          0.08827  -0.58441  -0.17693   0.27550  -0.08276
  48        2S         -0.74379   0.56781   0.12613  -1.49985  -0.21266
  49        3PX        -0.02184   0.01226   0.01737  -0.07636  -0.07627
  50        3PY         0.07981  -0.07048  -0.00605   0.06142   0.06625
  51        3PZ         0.06198  -0.12872  -0.02440   0.12734  -0.04376
  52 5   H  1S         -0.08827  -0.58441  -0.17693  -0.27550  -0.08276
  53        2S          0.74379   0.56781   0.12613   1.49985  -0.21266
  54        3PX         0.02184   0.01226   0.01737   0.07636  -0.07627
  55        3PY        -0.07981  -0.07048  -0.00605  -0.06142   0.06625
  56        3PZ         0.06198   0.12872   0.02440   0.12734   0.04376
                          31        32        33        34        35
                           V         V         V         V         V
     Eigenvalues --     0.71475   0.71659   0.73874   0.77344   0.91730
   1 1   C  1S         -0.01311   0.00000  -0.00518   0.00000  -0.04128
   2        2S         -0.59977   0.00000  -0.10360   0.00000  -1.53401
   3        3S          1.51240   0.00000   0.29522   0.00000   3.53546
   4        4PX         0.05158   0.00000  -0.01231   0.00000   0.36009
   5        4PY        -0.40917   0.00000  -0.20503   0.00000   0.27594
   6        4PZ         0.00000   0.00730   0.00000  -0.18906   0.00000
   7        5PX         0.18136   0.00000  -0.12871   0.00000  -0.34283
   8        5PY         1.06870   0.00000   0.61846   0.00000  -0.09136
   9        5PZ         0.00000  -0.30273   0.00000   1.09558   0.00000
  10        6D 0        0.12179   0.00000   0.07218   0.00000  -0.08446
  11        6D+1        0.00000  -0.23955   0.00000   0.18922   0.00000
  12        6D-1        0.00000  -0.07934   0.00000   0.18731   0.00000
  13        6D+2        0.15130   0.00000  -0.04040   0.00000   0.08783
  14        6D-2       -0.02661   0.00000  -0.08834   0.00000  -0.08203
  15 2   F  1S          0.01868   0.00000  -0.00702   0.00000   0.04301
  16        2S         -0.04619   0.00000   0.02433   0.00000  -0.19262
  17        3S         -0.26574   0.00000   0.06663   0.00000  -0.38309
  18        4PX        -0.04932   0.00000  -0.00465   0.00000  -0.14801
  19        4PY        -0.07477   0.00000  -0.02588   0.00000   0.10868
  20        4PZ         0.00000   0.18789   0.00000  -0.27730   0.00000
  21        5PX         0.18534   0.00000  -0.04860   0.00000   0.49386
  22        5PY        -0.05664   0.00000  -0.01339   0.00000  -0.07077
  23        5PZ         0.00000  -0.01705   0.00000   0.02243   0.00000
  24        6D 0        0.00558   0.00000  -0.00295   0.00000   0.00850
  25        6D+1        0.00000   0.01220   0.00000  -0.01424   0.00000
  26        6D-1        0.00000  -0.00278   0.00000   0.00365   0.00000
  27        6D+2       -0.01039   0.00000   0.00050   0.00000  -0.01925
  28        6D-2        0.00501   0.00000   0.00516   0.00000   0.00013
  29 3   Cl 1S         -0.06636   0.00000  -0.03590   0.00000   0.00388
  30        2S         -0.17917   0.00000  -0.10257   0.00000   0.05675
  31        3S         -1.08720   0.00000  -0.59625   0.00000   0.12566
  32        4S          1.57955   0.00000   0.91401   0.00000  -0.72680
  33        5PX        -0.06018   0.00000   0.00909   0.00000   0.01487
  34        5PY         0.00962   0.00000  -0.00838   0.00000   0.06966
  35        5PZ         0.00000   0.03879   0.00000  -0.04020   0.00000
  36        6PX         0.23856   0.00000  -0.03643   0.00000  -0.07649
  37        6PY        -0.04690   0.00000   0.03193   0.00000  -0.33271
  38        6PZ         0.00000  -0.15469   0.00000   0.16715   0.00000
  39        7PX        -0.12482   0.00000   0.15378   0.00000  -0.08599
  40        7PY         0.34439   0.00000   0.15619   0.00000  -0.05698
  41        7PZ         0.00000   0.20355   0.00000  -0.32170   0.00000
  42        8D 0       -0.07284   0.00000   0.87071   0.00000  -0.12099
  43        8D+1        0.00000  -0.58448   0.00000  -0.75253   0.00000
  44        8D-1        0.00000   0.65523   0.00000  -0.26592   0.00000
  45        8D+2        0.07637   0.00000  -0.09788   0.00000  -0.29708
  46        8D-2       -0.56323   0.00000   0.29588   0.00000   0.26406
  47 4   H  1S          0.07793   0.15177  -0.03723  -0.24973  -0.24305
  48        2S         -0.84191  -0.04844  -0.33111  -0.47514  -0.80860
  49        3PX        -0.00689  -0.09592  -0.03630   0.11902  -0.10800
  50        3PY         0.00402  -0.03970   0.01881   0.02861   0.06355
  51        3PZ         0.09685  -0.00758   0.00444   0.06144   0.04415
  52 5   H  1S          0.07793  -0.15177  -0.03723   0.24973  -0.24305
  53        2S         -0.84191   0.04844  -0.33111   0.47514  -0.80860
  54        3PX        -0.00689   0.09592  -0.03630  -0.11902  -0.10800
  55        3PY         0.00402   0.03970   0.01881  -0.02861   0.06355
  56        3PZ        -0.09685  -0.00758  -0.00444   0.06144  -0.04415
                          36        37        38        39        40
                           V         V         V         V         V
     Eigenvalues --     1.05061   1.06545   1.15187   1.22744   1.26513
   1 1   C  1S          0.02528   0.00000  -0.04686  -0.09827   0.00000
   2        2S         -0.38217   0.00000  -0.45526  -0.97857   0.00000
   3        3S         -0.69414   0.00000   1.63177   2.65074   0.00000
   4        4PX        -0.30609   0.00000   0.12444  -0.30522   0.00000
   5        4PY         0.19053   0.00000  -0.03162  -0.10287   0.00000
   6        4PZ         0.00000  -0.07398   0.00000   0.00000   0.07053
   7        5PX        -0.34420   0.00000  -0.58249  -0.40055   0.00000
   8        5PY         0.45574   0.00000   0.04495  -0.65247   0.00000
   9        5PZ         0.00000   0.59757   0.00000   0.00000  -0.44747
  10        6D 0        0.28332   0.00000   0.18323   0.18148   0.00000
  11        6D+1        0.00000  -0.32653   0.00000   0.00000  -0.38986
  12        6D-1        0.00000  -0.31956   0.00000   0.00000   0.08327
  13        6D+2       -0.36977   0.00000   0.24710  -0.19221   0.00000
  14        6D-2        0.20637   0.00000   0.21589  -0.24512   0.00000
  15 2   F  1S         -0.06116   0.00000   0.00925  -0.00491   0.00000
  16        2S          0.25328   0.00000  -0.04854  -0.00369   0.00000
  17        3S          0.44283   0.00000  -0.04669  -0.07350   0.00000
  18        4PX         0.43969   0.00000  -0.03296   0.41371   0.00000
  19        4PY        -0.08769   0.00000  -0.57467   0.13269   0.00000
  20        4PZ         0.00000   0.10118   0.00000   0.00000  -0.75890
  21        5PX        -1.09986   0.00000   0.19298  -0.64524   0.00000
  22        5PY         0.00413   0.00000   0.57561  -0.01094   0.00000
  23        5PZ         0.00000  -0.10275   0.00000   0.00000   1.10865
  24        6D 0        0.00807   0.00000   0.00650   0.03337   0.00000
  25        6D+1        0.00000   0.01530   0.00000   0.00000   0.04562
  26        6D-1        0.00000  -0.01096   0.00000   0.00000   0.00063
  27        6D+2       -0.02429   0.00000   0.00303  -0.03081   0.00000
  28        6D-2       -0.01472   0.00000  -0.01409   0.02227   0.00000
  29 3   Cl 1S         -0.04808   0.00000   0.02329   0.07066   0.00000
  30        2S         -0.15416   0.00000   0.09329   0.29304   0.00000
  31        3S         -0.82867   0.00000   0.42674   1.31307   0.00000
  32        4S          1.23097   0.00000  -0.82551  -2.41084   0.00000
  33        5PX         0.03091   0.00000   0.02334  -0.02041   0.00000
  34        5PY         0.06181   0.00000  -0.03036  -0.03953   0.00000
  35        5PZ         0.00000  -0.03922   0.00000   0.00000   0.00182
  36        6PX        -0.14716   0.00000  -0.13074   0.12550   0.00000
  37        6PY        -0.29474   0.00000   0.14902   0.21866   0.00000
  38        6PZ         0.00000   0.20197   0.00000   0.00000  -0.01004
  39        7PX         0.37526   0.00000   0.21744  -0.57087   0.00000
  40        7PY         0.64008   0.00000  -0.57465  -1.16093   0.00000
  41        7PZ         0.00000  -0.45088   0.00000   0.00000   0.07130
  42        8D 0       -0.21429   0.00000   0.02270   0.26510   0.00000
  43        8D+1        0.00000  -0.17851   0.00000   0.00000   0.04695
  44        8D-1        0.00000  -0.57502   0.00000   0.00000   0.03156
  45        8D+2       -0.16461   0.00000   0.44616   0.18508   0.00000
  46        8D-2        0.26832   0.00000   0.23959  -0.42674   0.00000
  47 4   H  1S         -0.05461  -0.13132  -0.33205  -0.48832  -0.08337
  48        2S         -0.12628  -0.16701  -0.25227  -0.15578   0.21530
  49        3PX         0.11994  -0.24412  -0.01369  -0.00374  -0.16809
  50        3PY        -0.02470  -0.28277  -0.21344   0.02291   0.10564
  51        3PZ         0.07724   0.07247   0.09820  -0.02386  -0.18180
  52 5   H  1S         -0.05461   0.13132  -0.33205  -0.48832   0.08337
  53        2S         -0.12628   0.16701  -0.25227  -0.15578  -0.21530
  54        3PX         0.11994   0.24412  -0.01369  -0.00374   0.16809
  55        3PY        -0.02470   0.28277  -0.21344   0.02291  -0.10564
  56        3PZ        -0.07724   0.07247  -0.09820   0.02386  -0.18180
                          41        42        43        44        45
                           V         V         V         V         V
     Eigenvalues --     1.34065   1.53321   1.62158   1.62803   1.67137
   1 1   C  1S          0.02313   0.00000   0.01782   0.00000   0.05716
   2        2S          0.12391   0.00000  -0.06453   0.00000   0.42021
   3        3S         -0.78539   0.00000  -0.09864   0.00000  -1.83946
   4        4PX        -0.04515   0.00000   0.08461   0.00000   0.09740
   5        4PY         0.11861   0.00000  -0.02377   0.00000   0.07393
   6        4PZ         0.00000  -0.10569   0.00000  -0.20355   0.00000
   7        5PX         0.28891   0.00000  -0.57833   0.00000   0.98744
   8        5PY        -0.73570   0.00000   0.57147   0.00000   1.46995
   9        5PZ         0.00000   1.47373   0.00000   0.91210   0.00000
  10        6D 0       -0.12795   0.00000   0.62993   0.00000   0.33438
  11        6D+1        0.00000   0.22837   0.00000  -0.58169   0.00000
  12        6D-1        0.00000  -0.09320   0.00000   0.72774   0.00000
  13        6D+2       -0.21978   0.00000  -0.08704   0.00000   0.59484
  14        6D-2       -0.62351   0.00000  -0.55903   0.00000  -0.39051
  15 2   F  1S         -0.00217   0.00000  -0.02397   0.00000   0.01093
  16        2S         -0.00941   0.00000   0.10861   0.00000   0.05954
  17        3S          0.04224   0.00000   0.31969   0.00000  -0.34467
  18        4PX         0.05230   0.00000  -0.43054   0.00000   0.31591
  19        4PY        -0.63477   0.00000   0.09201   0.00000   0.18868
  20        4PZ         0.00000   0.31903   0.00000   0.25665   0.00000
  21        5PX        -0.15453   0.00000   0.32568   0.00000  -0.23567
  22        5PY         1.12450   0.00000  -0.02758   0.00000  -0.39567
  23        5PZ         0.00000  -0.72812   0.00000  -0.32109   0.00000
  24        6D 0       -0.00173   0.00000   0.00929   0.00000   0.00889
  25        6D+1        0.00000  -0.05836   0.00000   0.04815   0.00000
  26        6D-1        0.00000  -0.00815   0.00000   0.03178   0.00000
  27        6D+2       -0.00505   0.00000   0.02609   0.00000   0.00918
  28        6D-2        0.07670   0.00000   0.05088   0.00000   0.00415
  29 3   Cl 1S         -0.00709   0.00000  -0.00400   0.00000  -0.02528
  30        2S         -0.02957   0.00000  -0.07353   0.00000  -0.25539
  31        3S         -0.13284   0.00000  -0.15375   0.00000  -0.68059
  32        4S          0.04886   0.00000   0.52150   0.00000   2.24765
  33        5PX         0.02507   0.00000  -0.00614   0.00000  -0.04501
  34        5PY        -0.00194   0.00000  -0.04540   0.00000  -0.09650
  35        5PZ         0.00000   0.00118   0.00000  -0.01552   0.00000
  36        6PX        -0.09451   0.00000   0.01332   0.00000   0.18229
  37        6PY        -0.03024   0.00000   0.16550   0.00000   0.36585
  38        6PZ         0.00000   0.01921   0.00000   0.06835   0.00000
  39        7PX        -0.03802   0.00000   0.24686   0.00000   0.27006
  40        7PY         0.15364   0.00000   0.17831   0.00000   0.96827
  41        7PZ         0.00000  -0.29559   0.00000  -0.21175   0.00000
  42        8D 0       -0.10465   0.00000  -0.17761   0.00000  -0.30420
  43        8D+1        0.00000  -0.13910   0.00000   0.05396   0.00000
  44        8D-1        0.00000  -0.22565   0.00000  -0.04537   0.00000
  45        8D+2       -0.31473   0.00000  -0.16740   0.00000  -0.43201
  46        8D-2       -0.13246   0.00000   0.17642   0.00000   0.33775
  47 4   H  1S          0.17136  -0.27398  -0.41467  -0.70044   0.05084
  48        2S          0.25124  -0.53563  -0.01636   0.00714   0.06830
  49        3PX        -0.09185  -0.36838   0.42155   0.22262  -0.36771
  50        3PY         0.07982   0.41174  -0.05838  -0.20257  -0.32355
  51        3PZ        -0.06662  -0.46680  -0.07859  -0.19472  -0.07587
  52 5   H  1S          0.17136   0.27398  -0.41467   0.70044   0.05084
  53        2S          0.25124   0.53563  -0.01636  -0.00714   0.06830
  54        3PX        -0.09185   0.36838   0.42155  -0.22262  -0.36771
  55        3PY         0.07982  -0.41174  -0.05838   0.20257  -0.32355
  56        3PZ         0.06662  -0.46680   0.07859  -0.19472   0.07587
                          46        47        48        49        50
                           V         V         V         V         V
     Eigenvalues --     1.77667   1.80729   1.99165   2.27263   2.35198
   1 1   C  1S         -0.01908   0.00000   0.01740   0.02869   0.00000
   2        2S         -0.05852   0.00000   0.00818   0.92835   0.00000
   3        3S          0.53617   0.00000  -0.67969  -0.90812   0.00000
   4        4PX         0.04104   0.00000  -0.02770  -0.62892   0.00000
   5        4PY         0.01137   0.00000  -0.12971   0.47537   0.00000
   6        4PZ         0.00000  -0.03506   0.00000   0.00000   1.31022
   7        5PX         0.16194   0.00000  -0.08205  -0.93026   0.00000
   8        5PY        -0.29479   0.00000  -0.50896   0.78487   0.00000
   9        5PZ         0.00000  -0.02786   0.00000   0.00000   1.36261
  10        6D 0       -0.25819   0.00000   0.89349   0.60583   0.00000
  11        6D+1        0.00000   0.78612   0.00000   0.00000  -0.75039
  12        6D-1        0.00000   0.68570   0.00000   0.00000   1.09999
  13        6D+2        1.05356   0.00000   0.11687  -0.17842   0.00000
  14        6D-2       -0.22709   0.00000   0.46838  -0.37947   0.00000
  15 2   F  1S          0.01702   0.00000   0.00188   0.00843   0.00000
  16        2S          0.28578   0.00000  -0.40638  -1.33620   0.00000
  17        3S         -0.92865   0.00000   0.73826   2.35785   0.00000
  18        4PX         0.34695   0.00000  -0.02535   0.03726   0.00000
  19        4PY        -0.06218   0.00000  -0.10128   0.03536   0.00000
  20        4PZ         0.00000  -0.06564   0.00000   0.00000   0.07980
  21        5PX         0.18863   0.00000  -0.27834  -0.68590   0.00000
  22        5PY         0.18052   0.00000   0.11108  -0.05293   0.00000
  23        5PZ         0.00000  -0.13578   0.00000   0.00000  -0.16959
  24        6D 0        0.00038   0.00000   0.06255   0.05312   0.00000
  25        6D+1        0.00000  -0.10163   0.00000   0.00000   0.04251
  26        6D-1        0.00000   0.03264   0.00000   0.00000   0.06009
  27        6D+2        0.03735   0.00000  -0.01136  -0.06312   0.00000
  28        6D-2        0.03283   0.00000  -0.04878   0.03585   0.00000
  29 3   Cl 1S          0.00371   0.00000   0.00308  -0.01068   0.00000
  30        2S         -0.00993   0.00000   0.00868  -0.10324   0.00000
  31        3S          0.03513   0.00000   0.05257  -0.27992   0.00000
  32        4S         -0.08936   0.00000  -0.17627   0.85532   0.00000
  33        5PX        -0.01850   0.00000  -0.01194  -0.01225   0.00000
  34        5PY        -0.01604   0.00000   0.00057  -0.02985   0.00000
  35        5PZ         0.00000  -0.02903   0.00000   0.00000   0.00057
  36        6PX         0.05463   0.00000   0.03937   0.04189   0.00000
  37        6PY         0.05558   0.00000  -0.00459   0.11987   0.00000
  38        6PZ         0.00000   0.09301   0.00000   0.00000  -0.00612
  39        7PX         0.00591   0.00000  -0.01302   0.32831   0.00000
  40        7PY         0.00368   0.00000  -0.02718   0.30714   0.00000
  41        7PZ         0.00000   0.03493   0.00000   0.00000  -0.11762
  42        8D 0       -0.05004   0.00000  -0.07240  -0.08809   0.00000
  43        8D+1        0.00000   0.09521   0.00000   0.00000   0.00641
  44        8D-1        0.00000   0.25923   0.00000   0.00000  -0.02975
  45        8D+2       -0.02987   0.00000   0.03822  -0.06742   0.00000
  46        8D-2        0.22562   0.00000   0.08344   0.18200   0.00000
  47 4   H  1S          0.05748  -0.02431  -0.00279  -0.55983  -1.28150
  48        2S         -0.05200   0.03649   0.24318  -0.29058  -0.78481
  49        3PX         0.45330  -0.55021  -0.27298  -0.05544  -0.40493
  50        3PY         0.40350  -0.48020   0.59740   0.27510   0.52454
  51        3PZ         0.05583  -0.00400  -0.52550   0.73166   0.96785
  52 5   H  1S          0.05748   0.02431  -0.00279  -0.55983   1.28150
  53        2S         -0.05200  -0.03649   0.24318  -0.29058   0.78481
  54        3PX         0.45330   0.55021  -0.27298  -0.05544   0.40493
  55        3PY         0.40350   0.48020   0.59740   0.27510  -0.52454
  56        3PZ        -0.05583  -0.00400   0.52550  -0.73166   0.96785
                          51        52        53        54        55
                           V         V         V         V         V
     Eigenvalues --     2.42781   3.57321   3.57513   3.76660   3.81925
   1 1   C  1S         -0.06864   0.00000   0.00473  -0.00128   0.00000
   2        2S          0.59854   0.00000  -0.04459  -0.02922   0.00000
   3        3S          2.37975   0.00000  -0.15729   0.00134   0.00000
   4        4PX        -0.12982   0.00000   0.01962   0.04949   0.00000
   5        4PY         0.53552   0.00000  -0.03723   0.01156   0.00000
   6        4PZ         0.00000  -0.10871   0.00000   0.00000  -0.05767
   7        5PX         0.38879   0.00000  -0.00295   0.05901   0.00000
   8        5PY         0.20053   0.00000   0.02531   0.11133   0.00000
   9        5PZ         0.00000  -0.11705   0.00000   0.00000   0.18153
  10        6D 0        0.73682   0.00000  -0.17141   0.01469   0.00000
  11        6D+1        0.00000   0.04712   0.00000   0.00000   0.49120
  12        6D-1        0.00000  -0.19843   0.00000   0.00000  -0.03022
  13        6D+2       -0.00941   0.00000  -0.06012   0.01510   0.00000
  14        6D-2       -0.18643   0.00000   0.01052   0.39575   0.00000
  15 2   F  1S         -0.01218   0.00000  -0.00034   0.00065   0.00000
  16        2S          1.20453   0.00000  -0.03657   0.02787   0.00000
  17        3S         -1.87236   0.00000   0.06441  -0.05900   0.00000
  18        4PX        -0.21997   0.00000   0.00922  -0.00030   0.00000
  19        4PY         0.00828   0.00000   0.00095   0.05774   0.00000
  20        4PZ         0.00000  -0.00749   0.00000   0.00000   0.05721
  21        5PX         0.65276   0.00000  -0.02295   0.00973   0.00000
  22        5PY        -0.03318   0.00000  -0.00251  -0.21139   0.00000
  23        5PZ         0.00000   0.02262   0.00000   0.00000  -0.23967
  24        6D 0       -0.00787   0.00000   0.86292   0.01720   0.00000
  25        6D+1        0.00000   0.00623   0.00000   0.00000   1.02051
  26        6D-1        0.00000   0.99850   0.00000   0.00000  -0.00796
  27        6D+2        0.11005   0.00000   0.50147   0.02861   0.00000
  28        6D-2       -0.00734   0.00000  -0.02774   1.01891   0.00000
  29 3   Cl 1S          0.00508   0.00000  -0.00311  -0.00098   0.00000
  30        2S          0.02571   0.00000  -0.00759   0.00325   0.00000
  31        3S          0.10346   0.00000  -0.05133  -0.00897   0.00000
  32        4S         -0.25581   0.00000   0.07573   0.02793   0.00000
  33        5PX        -0.00305   0.00000   0.00693  -0.00503   0.00000
  34        5PY        -0.00147   0.00000   0.00705   0.00791   0.00000
  35        5PZ         0.00000   0.00386   0.00000   0.00000  -0.00428
  36        6PX         0.02407   0.00000  -0.03063   0.01614   0.00000
  37        6PY         0.00585   0.00000  -0.03179  -0.02779   0.00000
  38        6PZ         0.00000  -0.01391   0.00000   0.00000   0.01743
  39        7PX        -0.17263   0.00000   0.03838   0.00199   0.00000
  40        7PY        -0.09391   0.00000   0.04079  -0.00681   0.00000
  41        7PZ         0.00000   0.01728   0.00000   0.00000  -0.03213
  42        8D 0       -0.02497   0.00000   0.01344   0.01958   0.00000
  43        8D+1        0.00000  -0.01070   0.00000   0.00000  -0.01383
  44        8D-1        0.00000  -0.01721   0.00000   0.00000   0.01727
  45        8D+2       -0.03383   0.00000   0.00674   0.07078   0.00000
  46        8D-2       -0.06563   0.00000  -0.01387   0.01576   0.00000
  47 4   H  1S         -0.91029   0.14800   0.09747   0.05166   0.10904
  48        2S         -0.45910   0.03105   0.00747  -0.00979  -0.07986
  49        3PX        -0.50289   0.04343   0.03686  -0.07833  -0.12843
  50        3PY         0.48343  -0.00913  -0.08587  -0.00814  -0.07202
  51        3PZ         0.60731  -0.08061  -0.01425  -0.07288  -0.11149
  52 5   H  1S         -0.91029  -0.14800   0.09747   0.05166  -0.10904
  53        2S         -0.45910  -0.03105   0.00747  -0.00979   0.07986
  54        3PX        -0.50289  -0.04343   0.03686  -0.07833   0.12843
  55        3PY         0.48343   0.00913  -0.08587  -0.00814   0.07202
  56        3PZ        -0.60731  -0.08061   0.01425   0.07288  -0.11149
                          56
                           V
     Eigenvalues --     4.01507
   1 1   C  1S          0.03374
   2        2S         -0.28524
   3        3S         -0.39215
   4        4PX        -0.48769
   5        4PY         0.02428
   6        4PZ         0.00000
   7        5PX        -0.30454
   8        5PY         0.02085
   9        5PZ         0.00000
  10        6D 0        0.26548
  11        6D+1        0.00000
  12        6D-1        0.00000
  13        6D+2       -0.40788
  14        6D-2        0.04324
  15 2   F  1S         -0.01850
  16        2S         -0.47961
  17        3S          1.10603
  18        4PX         0.02953
  19        4PY        -0.00023
  20        4PZ         0.00000
  21        5PX        -0.62959
  22        5PY         0.00787
  23        5PZ         0.00000
  24        6D 0       -0.53528
  25        6D+1        0.00000
  26        6D-1        0.00000
  27        6D+2        0.91487
  28        6D-2       -0.01744
  29 3   Cl 1S         -0.00071
  30        2S          0.00199
  31        3S         -0.00697
  32        4S         -0.00063
  33        5PX         0.00290
  34        5PY         0.00372
  35        5PZ         0.00000
  36        6PX        -0.00948
  37        6PY        -0.01597
  38        6PZ         0.00000
  39        7PX         0.03067
  40        7PY        -0.00925
  41        7PZ         0.00000
  42        8D 0        0.00391
  43        8D+1        0.00000
  44        8D-1        0.00000
  45        8D+2        0.01037
  46        8D-2       -0.02129
  47 4   H  1S         -0.05878
  48        2S          0.02506
  49        3PX        -0.03404
  50        3PY         0.00613
  51        3PZ        -0.00204
  52 5   H  1S         -0.05878
  53        2S          0.02506
  54        3PX        -0.03404
  55        3PY         0.00613
  56        3PZ         0.00204
     Density Matrix:
                           1         2         3         4         5
   1 1   C  1S          2.05577
   2        2S         -0.09924   0.35394
   3        3S         -0.11700   0.19863   0.12909
   4        4PX         0.01491  -0.02045  -0.06977   0.30642
   5        4PY        -0.00938   0.01638  -0.01164  -0.02328   0.35836
   6        4PZ         0.00000  -0.00000   0.00000   0.00000  -0.00000
   7        5PX         0.01807  -0.03079  -0.02884   0.06377  -0.00126
   8        5PY        -0.00091   0.00638  -0.00702   0.00033   0.12679
   9        5PZ         0.00000  -0.00000   0.00000  -0.00000  -0.00000
  10        6D 0        0.00480  -0.00723  -0.00110  -0.01756   0.01874
  11        6D+1        0.00000  -0.00000  -0.00000   0.00000   0.00000
  12        6D-1        0.00000  -0.00000  -0.00000   0.00000   0.00000
  13        6D+2        0.00076   0.00172  -0.00628   0.02788   0.01102
  14        6D-2       -0.00222   0.00217   0.00128  -0.00590  -0.00885
  15 2   F  1S          0.00286   0.00221   0.02209  -0.02214   0.00217
  16        2S         -0.00211  -0.01291  -0.02976   0.05577  -0.00688
  17        3S          0.00799  -0.04768  -0.04203   0.00107   0.00234
  18        4PX         0.06657  -0.16942  -0.02147  -0.38280   0.03769
  19        4PY         0.00709  -0.01286  -0.02745   0.02712   0.04931
  20        4PZ        -0.00000   0.00000   0.00000  -0.00000  -0.00000
  21        5PX         0.04066  -0.09570  -0.01060  -0.22368   0.01874
  22        5PY         0.00426  -0.00873  -0.01676   0.01706   0.01465
  23        5PZ        -0.00000   0.00000   0.00000  -0.00000  -0.00000
  24        6D 0        0.00260  -0.00442  -0.00132  -0.00592   0.00072
  25        6D+1       -0.00000   0.00000  -0.00000   0.00000   0.00000
  26        6D-1       -0.00000   0.00000   0.00000   0.00000  -0.00000
  27        6D+2       -0.00472   0.00790   0.00246   0.00992  -0.00091
  28        6D-2        0.00026  -0.00051   0.00054  -0.00064  -0.00637
  29 3   Cl 1S         -0.00022  -0.00071  -0.00851  -0.00141  -0.00878
  30        2S          0.00062   0.00089   0.03240   0.00348   0.02348
  31        3S         -0.00001  -0.01431  -0.03013  -0.00834  -0.05990
  32        4S          0.02047  -0.04207  -0.06282   0.02526   0.02668
  33        5PX         0.01223  -0.02917  -0.03139   0.00159   0.05851
  34        5PY         0.02094  -0.04796  -0.04596   0.04813   0.14586
  35        5PZ        -0.00000   0.00000   0.00000  -0.00000  -0.00000
  36        6PX        -0.02799   0.06803   0.07298  -0.00365  -0.13836
  37        6PY        -0.04591   0.10867   0.10124  -0.11063  -0.34703
  38        6PZ         0.00000  -0.00000  -0.00000   0.00000   0.00000
  39        7PX        -0.01498   0.03936   0.04473  -0.00103  -0.06413
  40        7PY        -0.01482   0.04378   0.04357  -0.05259  -0.19265
  41        7PZ         0.00000  -0.00000  -0.00000   0.00000   0.00000
  42        8D 0        0.00607  -0.01332  -0.00953   0.00525   0.01754
  43        8D+1        0.00000  -0.00000  -0.00000  -0.00000   0.00000
  44        8D-1        0.00000  -0.00000  -0.00000   0.00000   0.00000
  45        8D+2        0.00865  -0.01843  -0.01408   0.01752   0.01592
  46        8D-2       -0.00720   0.01599   0.01055   0.00378  -0.02580
  47 4   H  1S         -0.08107   0.17010   0.10468  -0.09627   0.14867
  48        2S         -0.00267   0.01487   0.01017  -0.03124   0.06552
  49        3PX        -0.00438   0.00672   0.00240   0.00616   0.00238
  50        3PY         0.00534  -0.00850  -0.00538   0.00199   0.00448
  51        3PZ         0.01076  -0.01752  -0.01034   0.00726  -0.01156
  52 5   H  1S         -0.08107   0.17010   0.10468  -0.09627   0.14867
  53        2S         -0.00267   0.01487   0.01017  -0.03124   0.06552
  54        3PX        -0.00438   0.00672   0.00240   0.00616   0.00238
  55        3PY         0.00534  -0.00850  -0.00538   0.00199   0.00448
  56        3PZ        -0.01076   0.01752   0.01034  -0.00726   0.01156
                           6         7         8         9        10
   6        4PZ         0.47199
   7        5PX        -0.00000   0.02215
   8        5PY         0.00000   0.00551   0.05392
   9        5PZ         0.14090  -0.00000  -0.00000   0.05178
  10        6D 0       -0.00000  -0.00275   0.00545  -0.00000   0.00248
  11        6D+1       -0.01046   0.00000  -0.00000   0.00206   0.00000
  12        6D-1        0.01043   0.00000   0.00000   0.00165  -0.00000
  13        6D+2       -0.00000   0.00325   0.00386  -0.00000  -0.00154
  14        6D-2       -0.00000  -0.00084   0.00210   0.00000  -0.00091
  15 2   F  1S         -0.00000  -0.00418   0.00016  -0.00000   0.00573
  16        2S          0.00000   0.02132  -0.00339   0.00000  -0.01290
  17        3S         -0.00000   0.01059  -0.00375   0.00000  -0.01000
  18        4PX         0.00000  -0.05007   0.00548  -0.00000   0.02604
  19        4PY        -0.00000   0.04348   0.10460   0.00000  -0.00575
  20        4PZ        -0.01004  -0.00000  -0.00000   0.08700   0.00000
  21        5PX         0.00000  -0.02738   0.00277  -0.00000   0.01461
  22        5PY        -0.00000   0.02887   0.06360   0.00000  -0.00468
  23        5PZ        -0.02532  -0.00000  -0.00000   0.05273   0.00000
  24        6D 0       -0.00000  -0.00084   0.00006  -0.00000   0.00051
  25        6D+1       -0.00738   0.00000   0.00000  -0.00390   0.00000
  26        6D-1        0.00089   0.00000  -0.00000   0.00027  -0.00000
  27        6D+2        0.00000   0.00113  -0.00022   0.00000  -0.00084
  28        6D-2       -0.00000  -0.00082  -0.00394  -0.00000  -0.00013
  29 3   Cl 1S          0.00000   0.00166   0.00206  -0.00000  -0.00152
  30        2S         -0.00000  -0.00638  -0.01122   0.00000   0.00510
  31        3S          0.00000   0.00732  -0.00721   0.00000  -0.00806
  32        4S         -0.00000   0.01951   0.02918  -0.00000  -0.00577
  33        5PX        -0.00000  -0.02232   0.01429   0.00000   0.00092
  34        5PY         0.00000   0.02327   0.04920  -0.00000   0.00790
  35        5PZ         0.00964  -0.00000  -0.00000  -0.00750  -0.00000
  36        6PX         0.00000   0.05582  -0.03166  -0.00000  -0.00140
  37        6PY        -0.00000  -0.05338  -0.11423   0.00000  -0.01736
  38        6PZ        -0.02806   0.00000   0.00000   0.01711   0.00000
  39        7PX         0.00000   0.04220  -0.01123  -0.00000   0.00109
  40        7PY        -0.00000  -0.02883  -0.05890   0.00000  -0.01055
  41        7PZ        -0.04293   0.00000   0.00000   0.00549   0.00000
  42        8D 0       -0.00000   0.00244   0.00634  -0.00000   0.00098
  43        8D+1        0.00766  -0.00000   0.00000   0.00282   0.00000
  44        8D-1        0.02714   0.00000   0.00000   0.00797   0.00000
  45        8D+2       -0.00000   0.00566   0.00483  -0.00000   0.00062
  46        8D-2        0.00000   0.00071  -0.00876   0.00000  -0.00172
  47 4   H  1S          0.31829  -0.03044   0.04608   0.08418   0.00886
  48        2S          0.12476  -0.00634   0.01784   0.02495   0.00490
  49        3PX         0.00701   0.00067   0.00095   0.00210  -0.00039
  50        3PY        -0.01107   0.00105   0.00129  -0.00321   0.00040
  51        3PZ        -0.00738   0.00273  -0.00384  -0.00238  -0.00046
  52 5   H  1S         -0.31829  -0.03044   0.04608  -0.08418   0.00886
  53        2S         -0.12476  -0.00634   0.01784  -0.02495   0.00490
  54        3PX        -0.00701   0.00067   0.00095  -0.00210  -0.00039
  55        3PY         0.01107   0.00105   0.00129   0.00321   0.00040
  56        3PZ        -0.00738  -0.00273   0.00384  -0.00238   0.00046
                          11        12        13        14        15
  11        6D+1        0.00371
  12        6D-1       -0.00004   0.00176
  13        6D+2       -0.00000   0.00000   0.00492
  14        6D-2       -0.00000  -0.00000  -0.00027   0.00461
  15 2   F  1S         -0.00000  -0.00000  -0.00891   0.00025   2.09487
  16        2S         -0.00000   0.00000   0.02081  -0.00046  -0.19094
  17        3S         -0.00000   0.00000   0.01912   0.00035  -0.27794
  18        4PX        -0.00000  -0.00000  -0.03781   0.00398  -0.03131
  19        4PY        -0.00000  -0.00000   0.00038   0.05389   0.00160
  20        4PZ         0.05564  -0.00375  -0.00000   0.00000  -0.00000
  21        5PX        -0.00000  -0.00000  -0.02211   0.00241  -0.02323
  22        5PY        -0.00000  -0.00000  -0.00060   0.03660   0.00109
  23        5PZ         0.03779  -0.00278  -0.00000   0.00000  -0.00000
  24        6D 0       -0.00000  -0.00000  -0.00062   0.00004   0.00108
  25        6D+1       -0.00088  -0.00009   0.00000   0.00000   0.00000
  26        6D-1        0.00001   0.00007   0.00000  -0.00000  -0.00000
  27        6D+2        0.00000   0.00000   0.00114  -0.00015  -0.00173
  28        6D-2        0.00000  -0.00000  -0.00025  -0.00092  -0.00001
  29 3   Cl 1S         -0.00000  -0.00000  -0.00187   0.00201   0.00024
  30        2S          0.00000   0.00000   0.00613  -0.00678   0.00016
  31        3S         -0.00000  -0.00000  -0.00968   0.01088   0.00289
  32        4S         -0.00000  -0.00000  -0.00401   0.01035  -0.00617
  33        5PX        -0.00000   0.00000   0.01538   0.00422  -0.00651
  34        5PY         0.00000   0.00000   0.00449  -0.01330   0.00004
  35        5PZ         0.00415   0.01534  -0.00000  -0.00000   0.00000
  36        6PX         0.00000  -0.00000  -0.03589  -0.01009   0.01580
  37        6PY        -0.00000  -0.00000  -0.00883   0.03016  -0.00059
  38        6PZ        -0.00954  -0.03657   0.00000   0.00000   0.00000
  39        7PX         0.00000  -0.00000  -0.02485  -0.00939   0.00897
  40        7PY        -0.00000  -0.00000  -0.00182   0.02109  -0.00481
  41        7PZ        -0.00714  -0.02784   0.00000   0.00000   0.00000
  42        8D 0        0.00000   0.00000   0.00095  -0.00072   0.00002
  43        8D+1       -0.00007  -0.00016   0.00000  -0.00000  -0.00000
  44        8D-1       -0.00129  -0.00022   0.00000  -0.00000  -0.00000
  45        8D+2        0.00000   0.00000   0.00151  -0.00221  -0.00030
  46        8D-2       -0.00000  -0.00000  -0.00130   0.00021   0.00032
  47 4   H  1S         -0.01217   0.00957  -0.00303  -0.00472   0.00557
  48        2S         -0.00849   0.00574  -0.00098  -0.00478  -0.00366
  49        3PX        -0.00013   0.00018   0.00073  -0.00019  -0.00083
  50        3PY         0.00037  -0.00015   0.00020  -0.00047   0.00058
  51        3PZ         0.00010  -0.00009   0.00002   0.00008   0.00051
  52 5   H  1S          0.01217  -0.00957  -0.00303  -0.00472   0.00557
  53        2S          0.00849  -0.00574  -0.00098  -0.00478  -0.00366
  54        3PX         0.00013  -0.00018   0.00073  -0.00019  -0.00083
  55        3PY        -0.00037   0.00015   0.00020  -0.00047   0.00058
  56        3PZ         0.00010  -0.00009  -0.00002  -0.00008  -0.00051
                          16        17        18        19        20
  16        2S          0.49905
  17        3S          0.55139   0.62958
  18        4PX         0.05932   0.15856   0.64455
  19        4PY        -0.00036  -0.01884   0.00184   0.88761
  20        4PZ        -0.00000   0.00000  -0.00000  -0.00000   0.91034
  21        5PX         0.05901   0.11857   0.38425   0.00756  -0.00000
  22        5PY        -0.00041  -0.01306   0.00226   0.59303   0.00000
  23        5PZ        -0.00000   0.00000  -0.00000  -0.00000   0.61134
  24        6D 0       -0.00197  -0.00054   0.00994  -0.00058  -0.00000
  25        6D+1       -0.00000  -0.00000   0.00000   0.00000  -0.01702
  26        6D-1        0.00000   0.00000  -0.00000  -0.00000   0.00033
  27        6D+2        0.00302   0.00065  -0.01740  -0.00114   0.00000
  28        6D-2        0.00005   0.00037   0.00042  -0.01784  -0.00000
  29 3   Cl 1S         -0.00066   0.00086   0.00186   0.00653  -0.00000
  30        2S          0.00109  -0.00469  -0.00430  -0.02214   0.00000
  31        3S         -0.00488  -0.00062   0.01473   0.04351  -0.00000
  32        4S          0.00856   0.01247  -0.00613   0.09230  -0.00000
  33        5PX         0.01408   0.03452  -0.03644  -0.03452  -0.00000
  34        5PY         0.00031  -0.00498  -0.01003  -0.04226   0.00000
  35        5PZ        -0.00000   0.00000   0.00000   0.00000   0.00393
  36        6PX        -0.03430  -0.08331   0.08892   0.09136   0.00000
  37        6PY        -0.00016   0.01370   0.02295   0.10692  -0.00000
  38        6PZ         0.00000  -0.00000  -0.00000  -0.00000  -0.00897
  39        7PX        -0.02258  -0.05646   0.07119   0.05937   0.00000
  40        7PY         0.00876   0.01892   0.00459   0.11287  -0.00000
  41        7PZ        -0.00000  -0.00000  -0.00000  -0.00000  -0.01415
  42        8D 0        0.00047   0.00111   0.00167   0.00373   0.00000
  43        8D+1        0.00000   0.00000   0.00000   0.00000   0.00286
  44        8D-1        0.00000   0.00000  -0.00000  -0.00000  -0.00821
  45        8D+2        0.00104  -0.00056  -0.01004  -0.00930   0.00000
  46        8D-2       -0.00196  -0.00601  -0.01224  -0.00359   0.00000
  47 4   H  1S         -0.01972  -0.01786   0.03969  -0.04330  -0.10025
  48        2S          0.00537   0.01210   0.04079  -0.04496  -0.10788
  49        3PX         0.00030  -0.00153  -0.01187  -0.00030   0.00012
  50        3PY        -0.00061  -0.00011   0.00224  -0.00236   0.00186
  51        3PZ        -0.00047  -0.00045  -0.00045   0.00087  -0.00121
  52 5   H  1S         -0.01972  -0.01786   0.03969  -0.04330   0.10025
  53        2S          0.00537   0.01210   0.04079  -0.04496   0.10788
  54        3PX         0.00030  -0.00153  -0.01187  -0.00030  -0.00012
  55        3PY        -0.00061  -0.00011   0.00224  -0.00236  -0.00186
  56        3PZ         0.00047   0.00045   0.00045  -0.00087  -0.00121
                          21        22        23        24        25
  21        5PX         0.23075
  22        5PY         0.00590   0.39720
  23        5PZ        -0.00000  -0.00000   0.41129
  24        6D 0        0.00572  -0.00039  -0.00000   0.00018
  25        6D+1        0.00000   0.00000  -0.01113   0.00000   0.00044
  26        6D-1       -0.00000  -0.00000   0.00019  -0.00000  -0.00002
  27        6D+2       -0.01009  -0.00079   0.00000  -0.00032  -0.00000
  28        6D-2        0.00018  -0.01164  -0.00000   0.00002  -0.00000
  29 3   Cl 1S          0.00064   0.00433  -0.00000   0.00002  -0.00000
  30        2S         -0.00074  -0.01408   0.00000  -0.00004  -0.00000
  31        3S          0.00733   0.03063  -0.00000   0.00009   0.00000
  32        4S         -0.00559   0.05834  -0.00000  -0.00012   0.00000
  33        5PX        -0.02904  -0.02776  -0.00000   0.00018   0.00000
  34        5PY        -0.00635  -0.03652   0.00000   0.00001   0.00000
  35        5PZ         0.00000   0.00000   0.00371  -0.00000  -0.00020
  36        6PX         0.07036   0.07102   0.00000  -0.00043  -0.00000
  37        6PY         0.01394   0.09039  -0.00000  -0.00003  -0.00000
  38        6PZ        -0.00000  -0.00000  -0.00850   0.00000   0.00058
  39        7PX         0.05467   0.04499   0.00000  -0.00015  -0.00000
  40        7PY         0.00244   0.08591  -0.00000  -0.00003  -0.00000
  41        7PZ        -0.00000  -0.00000  -0.01049   0.00000   0.00093
  42        8D 0        0.00070   0.00154   0.00000   0.00011   0.00000
  43        8D+1        0.00000   0.00000   0.00159   0.00000  -0.00018
  44        8D-1       -0.00000  -0.00000  -0.00667   0.00000  -0.00028
  45        8D+2       -0.00611  -0.00719   0.00000  -0.00006   0.00000
  46        8D-2       -0.00645  -0.00102   0.00000  -0.00031  -0.00000
  47 4   H  1S          0.02374  -0.03570  -0.07959  -0.00019  -0.00321
  48        2S          0.02405  -0.03330  -0.07706   0.00052   0.00004
  49        3PX        -0.00695  -0.00036  -0.00019  -0.00021  -0.00011
  50        3PY         0.00113  -0.00184   0.00170   0.00009   0.00014
  51        3PZ        -0.00040   0.00110  -0.00051   0.00009   0.00014
  52 5   H  1S          0.02374  -0.03570   0.07959  -0.00019   0.00321
  53        2S          0.02405  -0.03330   0.07706   0.00052  -0.00004
  54        3PX        -0.00695  -0.00036   0.00019  -0.00021   0.00011
  55        3PY         0.00113  -0.00184  -0.00170   0.00009  -0.00014
  56        3PZ         0.00040  -0.00110  -0.00051  -0.00009   0.00014
                          26        27        28        29        30
  26        6D-1        0.00000
  27        6D+2        0.00000   0.00055
  28        6D-2       -0.00000   0.00000   0.00044
  29 3   Cl 1S         -0.00000  -0.00003   0.00002   2.17493
  30        2S         -0.00000   0.00001   0.00002  -0.63930   2.33924
  31        3S         -0.00000  -0.00067  -0.00000   0.06145  -0.21023
  32        4S         -0.00000  -0.00038  -0.00227   0.10887  -0.39324
  33        5PX         0.00000   0.00049  -0.00044   0.00153  -0.00730
  34        5PY        -0.00000  -0.00018  -0.00131   0.00407  -0.01788
  35        5PZ         0.00047  -0.00000  -0.00000  -0.00000   0.00000
  36        6PX        -0.00000  -0.00133   0.00095  -0.00371   0.01765
  37        6PY         0.00000   0.00026   0.00296  -0.01000   0.04384
  38        6PZ        -0.00117   0.00000   0.00000   0.00000  -0.00000
  39        7PX        -0.00000  -0.00121   0.00030  -0.00221   0.00978
  40        7PY         0.00000   0.00016   0.00058  -0.00501   0.02128
  41        7PZ        -0.00092   0.00000   0.00000   0.00000  -0.00000
  42        8D 0       -0.00000  -0.00018  -0.00032  -0.00083   0.00267
  43        8D+1        0.00001  -0.00000  -0.00000  -0.00000   0.00000
  44        8D-1        0.00002  -0.00000  -0.00000  -0.00000   0.00000
  45        8D+2        0.00000   0.00009  -0.00005  -0.00097   0.00316
  46        8D-2        0.00000   0.00048   0.00045   0.00099  -0.00314
  47 4   H  1S          0.00063   0.00070  -0.00150  -0.00318   0.00799
  48        2S          0.00028  -0.00076  -0.00008  -0.00060   0.00093
  49        3PX         0.00001   0.00038  -0.00005  -0.00006   0.00012
  50        3PY        -0.00002  -0.00015  -0.00001  -0.00023   0.00076
  51        3PZ        -0.00001  -0.00018   0.00018   0.00016  -0.00037
  52 5   H  1S         -0.00063   0.00070  -0.00150  -0.00318   0.00799
  53        2S         -0.00028  -0.00076  -0.00008  -0.00060   0.00093
  54        3PX        -0.00001   0.00038  -0.00005  -0.00006   0.00012
  55        3PY         0.00002  -0.00015  -0.00001  -0.00023   0.00076
  56        3PZ        -0.00001   0.00018  -0.00018  -0.00016   0.00037
                          31        32        33        34        35
  31        3S          0.54547
  32        4S          0.56624   0.63256
  33        5PX         0.00674   0.02545   2.12873
  34        5PY         0.02050   0.06887  -0.01583   2.09524
  35        5PZ        -0.00000  -0.00000  -0.00000  -0.00000   2.13788
  36        6PX        -0.01551  -0.05841  -0.31892   0.03825   0.00000
  37        6PY        -0.04796  -0.16122   0.03844  -0.23655  -0.00000
  38        6PZ         0.00000   0.00000  -0.00000   0.00000  -0.34068
  39        7PX        -0.01777  -0.03865  -0.24288   0.04650   0.00000
  40        7PY        -0.04285  -0.10165   0.04103  -0.15612  -0.00000
  41        7PZ         0.00000   0.00000  -0.00000   0.00000  -0.27184
  42        8D 0       -0.00457   0.00146   0.00317   0.00986   0.00000
  43        8D+1       -0.00000   0.00000   0.00000   0.00000  -0.00279
  44        8D-1       -0.00000   0.00000   0.00000   0.00000  -0.00735
  45        8D+2       -0.00524   0.00177  -0.00040   0.01496   0.00000
  46        8D-2        0.00535  -0.00196  -0.01259  -0.00892  -0.00000
  47 4   H  1S         -0.02832  -0.01844  -0.00009   0.02900   0.02764
  48        2S         -0.00158   0.00898   0.00245   0.02945   0.02795
  49        3PX        -0.00045   0.00033   0.00012   0.00104   0.00037
  50        3PY        -0.00063   0.00130   0.00124   0.00389   0.00059
  51        3PZ         0.00118   0.00058  -0.00068  -0.00094   0.00044
  52 5   H  1S         -0.02832  -0.01844  -0.00009   0.02900  -0.02764
  53        2S         -0.00158   0.00898   0.00245   0.02945  -0.02795
  54        3PX        -0.00045   0.00033   0.00012   0.00104  -0.00037
  55        3PY        -0.00063   0.00130   0.00124   0.00389  -0.00059
  56        3PZ        -0.00118  -0.00058   0.00068   0.00094   0.00044
                          36        37        38        39        40
  36        6PX         0.80803
  37        6PY        -0.09157   0.60813
  38        6PZ         0.00000  -0.00000   0.85913
  39        7PX         0.57500  -0.11249  -0.00000   0.41353
  40        7PY        -0.09849   0.36366   0.00000  -0.09760   0.22513
  41        7PZ         0.00000  -0.00000   0.64468   0.00000  -0.00000
  42        8D 0       -0.00797  -0.02458  -0.00000  -0.00346  -0.01289
  43        8D+1       -0.00000  -0.00000   0.00712  -0.00000  -0.00000
  44        8D-1       -0.00000  -0.00000   0.01870   0.00000  -0.00000
  45        8D+2        0.00117  -0.03731  -0.00000   0.00361  -0.02112
  46        8D-2        0.03163   0.02220   0.00000   0.01997   0.01021
  47 4   H  1S         -0.00091  -0.07434  -0.06979   0.00909  -0.05586
  48        2S         -0.00614  -0.07013  -0.06757   0.00253  -0.04520
  49        3PX        -0.00049  -0.00280  -0.00114  -0.00026  -0.00173
  50        3PY        -0.00282  -0.00942  -0.00167  -0.00122  -0.00509
  51        3PZ         0.00182   0.00294  -0.00104   0.00076   0.00262
  52 5   H  1S         -0.00091  -0.07434   0.06979   0.00909  -0.05586
  53        2S         -0.00614  -0.07013   0.06757   0.00253  -0.04520
  54        3PX        -0.00049  -0.00280   0.00114  -0.00026  -0.00173
  55        3PY        -0.00282  -0.00942   0.00167  -0.00122  -0.00509
  56        3PZ        -0.00182  -0.00294  -0.00104  -0.00076  -0.00262
                          41        42        43        44        45
  41        7PZ         0.48498
  42        8D 0       -0.00000   0.00154
  43        8D+1        0.00495   0.00000   0.00020
  44        8D-1        0.01281   0.00000   0.00059   0.00210
  45        8D+2       -0.00000   0.00191   0.00000   0.00000   0.00325
  46        8D-2        0.00000  -0.00186  -0.00000  -0.00000  -0.00157
  47 4   H  1S         -0.06623  -0.00068   0.00440   0.01786  -0.00551
  48        2S         -0.05549   0.00224   0.00113   0.00661   0.00192
  49        3PX        -0.00118  -0.00003   0.00011   0.00038   0.00013
  50        3PY        -0.00075   0.00061  -0.00019  -0.00070   0.00086
  51        3PZ        -0.00043   0.00023  -0.00014  -0.00045   0.00075
  52 5   H  1S          0.06623  -0.00068  -0.00440  -0.01786  -0.00551
  53        2S          0.05549   0.00224  -0.00113  -0.00661   0.00192
  54        3PX         0.00118  -0.00003  -0.00011  -0.00038   0.00013
  55        3PY         0.00075   0.00061   0.00019   0.00070   0.00086
  56        3PZ        -0.00043  -0.00023  -0.00014  -0.00045  -0.00075
                          46        47        48        49        50
  46        8D-2        0.00320
  47 4   H  1S         -0.00286   0.38858
  48        2S         -0.00384   0.14185   0.06850
  49        3PX         0.00021   0.00714   0.00198   0.00040
  50        3PY        -0.00070  -0.00992  -0.00235  -0.00026   0.00057
  51        3PZ         0.00008  -0.01896  -0.00497  -0.00039   0.00049
  52 5   H  1S         -0.00286  -0.06618  -0.05544  -0.00234   0.00506
  53        2S         -0.00384  -0.05544  -0.03054  -0.00177   0.00354
  54        3PX         0.00021  -0.00234  -0.00177   0.00019   0.00007
  55        3PY        -0.00070   0.00506   0.00354   0.00007   0.00004
  56        3PZ        -0.00008   0.00947   0.00160   0.00017  -0.00014
                          51        52        53        54        55
  51        3PZ         0.00144
  52 5   H  1S         -0.00947   0.38858
  53        2S         -0.00160   0.14185   0.06850
  54        3PX        -0.00017   0.00714   0.00198   0.00040
  55        3PY         0.00014  -0.00992  -0.00235  -0.00026   0.00057
  56        3PZ        -0.00120   0.01896   0.00497   0.00039  -0.00049
                          56
  56        3PZ         0.00144
    Full Mulliken population analysis:
                           1         2         3         4         5
   1 1   C  1S          2.05577
   2        2S         -0.02046   0.35394
   3        3S         -0.02101   0.15899   0.12909
   4        4PX         0.00000   0.00000   0.00000   0.30642
   5        4PY         0.00000   0.00000   0.00000  -0.00000   0.35836
   6        4PZ         0.00000   0.00000   0.00000  -0.00000   0.00000
   7        5PX         0.00000   0.00000   0.00000   0.03384  -0.00000
   8        5PY         0.00000   0.00000   0.00000   0.00000   0.06730
   9        5PZ         0.00000   0.00000   0.00000   0.00000   0.00000
  10        6D 0        0.00000   0.00000   0.00000   0.00000   0.00000
  11        6D+1       -0.00000   0.00000   0.00000   0.00000   0.00000
  12        6D-1       -0.00000   0.00000   0.00000   0.00000   0.00000
  13        6D+2        0.00000   0.00000  -0.00000   0.00000   0.00000
  14        6D-2       -0.00000   0.00000   0.00000   0.00000   0.00000
  15 2   F  1S          0.00000   0.00002   0.00077  -0.00046  -0.00000
  16        2S         -0.00000  -0.00108  -0.00592   0.00839   0.00003
  17        3S          0.00024  -0.01133  -0.01720   0.00031  -0.00002
  18        4PX        -0.00017   0.01734   0.00207   0.06291   0.00020
  19        4PY         0.00000  -0.00003  -0.00007   0.00015   0.00184
  20        4PZ        -0.00000   0.00000   0.00000  -0.00000   0.00000
  21        5PX        -0.00411   0.04367   0.00440   0.08343   0.00028
  22        5PY         0.00001  -0.00011  -0.00018   0.00026   0.00285
  23        5PZ        -0.00000   0.00000   0.00000   0.00000   0.00000
  24        6D 0       -0.00000   0.00020   0.00002   0.00039   0.00000
  25        6D+1        0.00000  -0.00000   0.00000  -0.00000   0.00000
  26        6D-1        0.00000  -0.00000  -0.00000  -0.00000  -0.00000
  27        6D+2       -0.00002   0.00062   0.00007   0.00112   0.00001
  28        6D-2       -0.00000   0.00000  -0.00000   0.00000   0.00039
  29 3   Cl 1S         -0.00000  -0.00000  -0.00005   0.00000   0.00001
  30        2S          0.00000   0.00000   0.00150  -0.00001  -0.00019
  31        3S         -0.00000  -0.00086  -0.00605   0.00032   0.00558
  32        4S          0.00049  -0.00720  -0.02258  -0.00164  -0.00426
  33        5PX         0.00000  -0.00005  -0.00025  -0.00000  -0.00025
  34        5PY         0.00000  -0.00022  -0.00089  -0.00021  -0.00138
  35        5PZ         0.00000  -0.00000  -0.00000  -0.00000  -0.00000
  36        6PX        -0.00007   0.00287   0.00542  -0.00001   0.00976
  37        6PY        -0.00027   0.01131   0.01852   0.00780   0.04950
  38        6PZ        -0.00000   0.00000   0.00000   0.00000   0.00000
  39        7PX        -0.00044   0.00599   0.00900  -0.00008   0.00837
  40        7PY        -0.00108   0.01642   0.02161   0.00686   0.03750
  41        7PZ        -0.00000   0.00000   0.00000   0.00000   0.00000
  42        8D 0       -0.00004   0.00097   0.00058   0.00020   0.00167
  43        8D+1       -0.00000   0.00000   0.00000   0.00000   0.00000
  44        8D-1       -0.00000   0.00000   0.00000   0.00000   0.00000
  45        8D+2       -0.00006   0.00166   0.00106   0.00167   0.00157
  46        8D-2       -0.00005   0.00140   0.00077   0.00001   0.00347
  47 4   H  1S         -0.00413   0.05666   0.04768   0.01227   0.02604
  48        2S         -0.00024   0.00699   0.00745   0.00214   0.00617
  49        3PX        -0.00014   0.00088   0.00019   0.00092   0.00022
  50        3PY        -0.00023   0.00152   0.00059   0.00018   0.00040
  51        3PZ        -0.00086   0.00581   0.00210   0.00124   0.00272
  52 5   H  1S         -0.00413   0.05666   0.04768   0.01227   0.02604
  53        2S         -0.00024   0.00699   0.00745   0.00214   0.00617
  54        3PX        -0.00014   0.00088   0.00019   0.00092   0.00022
  55        3PY        -0.00023   0.00152   0.00059   0.00018   0.00040
  56        3PZ        -0.00086   0.00581   0.00210   0.00124   0.00272
                           6         7         8         9        10
   6        4PZ         0.47199
   7        5PX         0.00000   0.02215
   8        5PY         0.00000   0.00000   0.05392
   9        5PZ         0.07479   0.00000   0.00000   0.05178
  10        6D 0        0.00000   0.00000   0.00000   0.00000   0.00248
  11        6D+1        0.00000   0.00000   0.00000   0.00000  -0.00000
  12        6D-1        0.00000   0.00000   0.00000   0.00000   0.00000
  13        6D+2        0.00000   0.00000   0.00000   0.00000   0.00000
  14        6D-2        0.00000   0.00000   0.00000   0.00000   0.00000
  15 2   F  1S          0.00000  -0.00029  -0.00000   0.00000  -0.00016
  16        2S         -0.00000   0.00767   0.00003  -0.00000   0.00187
  17        3S          0.00000   0.00631   0.00006  -0.00000   0.00156
  18        4PX        -0.00000   0.00380   0.00002   0.00000   0.00324
  19        4PY        -0.00000   0.00020   0.00973   0.00000   0.00002
  20        4PZ        -0.00037   0.00000   0.00000   0.00810   0.00000
  21        5PX        -0.00000   0.00437   0.00004   0.00000   0.00116
  22        5PY        -0.00000   0.00043   0.02567   0.00000   0.00001
  23        5PZ        -0.00493   0.00000   0.00000   0.02130   0.00000
  24        6D 0        0.00000  -0.00000  -0.00000   0.00000   0.00003
  25        6D+1        0.00045  -0.00000   0.00000   0.00020   0.00000
  26        6D-1        0.00000  -0.00000  -0.00000   0.00000  -0.00000
  27        6D+2        0.00000  -0.00000   0.00000   0.00000   0.00004
  28        6D-2        0.00000   0.00000   0.00020   0.00000  -0.00000
  29 3   Cl 1S          0.00000  -0.00001  -0.00003  -0.00000   0.00000
  30        2S         -0.00000   0.00030   0.00128   0.00000  -0.00007
  31        3S          0.00000  -0.00114   0.00278   0.00000   0.00070
  32        4S         -0.00000  -0.00402  -0.01483  -0.00000   0.00045
  33        5PX         0.00000  -0.00019  -0.00026  -0.00000  -0.00001
  34        5PY         0.00000  -0.00042  -0.00144  -0.00000  -0.00011
  35        5PZ         0.00001  -0.00000  -0.00000  -0.00012  -0.00000
  36        6PX        -0.00000   0.00503   0.00452   0.00000   0.00007
  37        6PY        -0.00000   0.00762   0.02326   0.00000   0.00201
  38        6PZ        -0.00088   0.00000   0.00000   0.00253   0.00000
  39        7PX        -0.00000   0.01261   0.00286   0.00000  -0.00002
  40        7PY        -0.00000   0.00735   0.01330   0.00000   0.00044
  41        7PZ        -0.00544   0.00000   0.00000   0.00221   0.00000
  42        8D 0        0.00000   0.00003   0.00021   0.00000   0.00009
  43        8D+1        0.00021   0.00000   0.00000   0.00016   0.00000
  44        8D-1        0.00184   0.00000   0.00000   0.00111   0.00000
  45        8D+2        0.00000   0.00064   0.00001   0.00000   0.00004
  46        8D-2        0.00000   0.00006   0.00070   0.00000   0.00011
  47 4   H  1S          0.10308   0.00561   0.01168   0.03945   0.00191
  48        2S          0.02172   0.00111   0.00428   0.01107   0.00021
  49        3PX         0.00120   0.00017   0.00004   0.00018  -0.00008
  50        3PY         0.00260   0.00005   0.00029   0.00038  -0.00011
  51        3PZ         0.00161   0.00023   0.00045  -0.00017  -0.00005
  52 5   H  1S          0.10308   0.00561   0.01168   0.03945   0.00191
  53        2S          0.02172   0.00111   0.00428   0.01107   0.00021
  54        3PX         0.00120   0.00017   0.00004   0.00018  -0.00008
  55        3PY         0.00260   0.00005   0.00029   0.00038  -0.00011
  56        3PZ         0.00161   0.00023   0.00045  -0.00017  -0.00005
                          11        12        13        14        15
  11        6D+1        0.00371
  12        6D-1       -0.00000   0.00176
  13        6D+2        0.00000   0.00000   0.00492
  14        6D-2        0.00000   0.00000   0.00000   0.00461
  15 2   F  1S          0.00000   0.00000  -0.00043  -0.00000   2.09487
  16        2S          0.00000  -0.00000   0.00522   0.00001  -0.04418
  17        3S          0.00000  -0.00000   0.00517  -0.00000  -0.05143
  18        4PX        -0.00000  -0.00000   0.00813   0.00006   0.00000
  19        4PY         0.00000  -0.00000   0.00000   0.00701   0.00000
  20        4PZ         0.00726   0.00001   0.00000   0.00000   0.00000
  21        5PX        -0.00000  -0.00000   0.00303   0.00004   0.00000
  22        5PY         0.00000   0.00000  -0.00001   0.01235   0.00000
  23        5PZ         0.01278   0.00002   0.00000   0.00000   0.00000
  24        6D 0        0.00000   0.00000   0.00003   0.00000   0.00000
  25        6D+1        0.00016  -0.00000  -0.00000   0.00000  -0.00000
  26        6D-1        0.00000   0.00000  -0.00000  -0.00000   0.00000
  27        6D+2        0.00000   0.00000   0.00013   0.00000   0.00000
  28        6D-2        0.00000   0.00000   0.00000   0.00016  -0.00000
  29 3   Cl 1S          0.00000   0.00000   0.00000   0.00000   0.00000
  30        2S         -0.00000  -0.00000  -0.00010  -0.00011   0.00000
  31        3S          0.00000   0.00000   0.00104   0.00114   0.00000
  32        4S          0.00000   0.00000   0.00039   0.00097  -0.00001
  33        5PX         0.00000  -0.00000  -0.00017   0.00001  -0.00000
  34        5PY        -0.00000  -0.00000  -0.00007  -0.00025   0.00000
  35        5PZ        -0.00001  -0.00009  -0.00000   0.00000  -0.00000
  36        6PX         0.00000   0.00000   0.00437   0.00009   0.00000
  37        6PY         0.00000   0.00000   0.00104   0.00501  -0.00000
  38        6PZ         0.00035   0.00332   0.00000  -0.00000  -0.00000
  39        7PX         0.00000   0.00000   0.00330   0.00089   0.00006
  40        7PY         0.00000   0.00000   0.00001   0.00205  -0.00002
  41        7PZ         0.00046   0.00447   0.00000  -0.00000  -0.00000
  42        8D 0        0.00000   0.00000   0.00006   0.00005  -0.00000
  43        8D+1       -0.00000   0.00001   0.00000  -0.00000   0.00000
  44        8D-1        0.00011   0.00004   0.00000   0.00000   0.00000
  45        8D+2        0.00000   0.00000   0.00000   0.00044  -0.00000
  46        8D-2       -0.00000   0.00000   0.00026  -0.00000   0.00000
  47 4   H  1S          0.00231   0.00250   0.00010   0.00048   0.00000
  48        2S          0.00032   0.00029   0.00001   0.00010  -0.00005
  49        3PX        -0.00003   0.00003  -0.00012  -0.00003  -0.00000
  50        3PY         0.00005  -0.00003  -0.00004   0.00003  -0.00000
  51        3PZ         0.00001   0.00002   0.00000   0.00001  -0.00000
  52 5   H  1S          0.00231   0.00250   0.00010   0.00048   0.00000
  53        2S          0.00032   0.00029   0.00001   0.00010  -0.00005
  54        3PX        -0.00003   0.00003  -0.00012  -0.00003  -0.00000
  55        3PY         0.00005  -0.00003  -0.00004   0.00003  -0.00000
  56        3PZ         0.00001   0.00002   0.00000   0.00001  -0.00000
                          16        17        18        19        20
  16        2S          0.49905
  17        3S          0.43533   0.62958
  18        4PX         0.00000   0.00000   0.64455
  19        4PY         0.00000   0.00000   0.00000   0.88761
  20        4PZ         0.00000   0.00000   0.00000   0.00000   0.91034
  21        5PX         0.00000   0.00000   0.18841   0.00000   0.00000
  22        5PY         0.00000   0.00000   0.00000   0.29079   0.00000
  23        5PZ         0.00000   0.00000   0.00000   0.00000   0.29977
  24        6D 0        0.00000   0.00000   0.00000   0.00000   0.00000
  25        6D+1        0.00000   0.00000   0.00000   0.00000   0.00000
  26        6D-1       -0.00000  -0.00000   0.00000   0.00000   0.00000
  27        6D+2        0.00000   0.00000   0.00000   0.00000   0.00000
  28        6D-2        0.00000   0.00000   0.00000   0.00000   0.00000
  29 3   Cl 1S         -0.00000   0.00000  -0.00000  -0.00000  -0.00000
  30        2S          0.00000  -0.00000   0.00000   0.00000   0.00000
  31        3S         -0.00000  -0.00000  -0.00000  -0.00001  -0.00000
  32        4S          0.00008   0.00049   0.00005  -0.00057  -0.00000
  33        5PX         0.00000   0.00001   0.00000   0.00000   0.00000
  34        5PY         0.00000  -0.00000   0.00000   0.00000   0.00000
  35        5PZ         0.00000  -0.00000   0.00000   0.00000   0.00000
  36        6PX        -0.00001  -0.00071  -0.00004  -0.00004  -0.00000
  37        6PY        -0.00000   0.00009  -0.00001  -0.00003  -0.00000
  38        6PZ        -0.00000   0.00000  -0.00000  -0.00000  -0.00000
  39        7PX        -0.00096  -0.00661  -0.00167  -0.00146  -0.00000
  40        7PY         0.00030   0.00177  -0.00011  -0.00142  -0.00000
  41        7PZ         0.00000   0.00000  -0.00000  -0.00000  -0.00010
  42        8D 0       -0.00000  -0.00001   0.00000   0.00000  -0.00000
  43        8D+1       -0.00000  -0.00000   0.00000   0.00000   0.00000
  44        8D-1       -0.00000  -0.00000  -0.00000  -0.00000  -0.00000
  45        8D+2        0.00000  -0.00000   0.00000   0.00000  -0.00000
  46        8D-2       -0.00000  -0.00008   0.00001   0.00000   0.00000
  47 4   H  1S         -0.00011  -0.00073  -0.00029  -0.00010  -0.00039
  48        2S          0.00046   0.00247  -0.00166  -0.00056  -0.00233
  49        3PX         0.00000  -0.00007   0.00007  -0.00000   0.00000
  50        3PY         0.00000   0.00000   0.00000  -0.00000  -0.00000
  51        3PZ         0.00000   0.00001  -0.00000  -0.00000   0.00000
  52 5   H  1S         -0.00011  -0.00073  -0.00029  -0.00010  -0.00039
  53        2S          0.00046   0.00247  -0.00166  -0.00056  -0.00233
  54        3PX         0.00000  -0.00007   0.00007  -0.00000   0.00000
  55        3PY         0.00000   0.00000   0.00000  -0.00000  -0.00000
  56        3PZ         0.00000   0.00001  -0.00000  -0.00000   0.00000
                          21        22        23        24        25
  21        5PX         0.23075
  22        5PY         0.00000   0.39720
  23        5PZ         0.00000   0.00000   0.41129
  24        6D 0        0.00000   0.00000   0.00000   0.00018
  25        6D+1        0.00000   0.00000   0.00000  -0.00000   0.00044
  26        6D-1        0.00000   0.00000   0.00000   0.00000  -0.00000
  27        6D+2        0.00000   0.00000   0.00000   0.00000   0.00000
  28        6D-2        0.00000   0.00000   0.00000  -0.00000   0.00000
  29 3   Cl 1S         -0.00000  -0.00000  -0.00000  -0.00000   0.00000
  30        2S          0.00000   0.00001   0.00000   0.00000   0.00000
  31        3S         -0.00014  -0.00046  -0.00000  -0.00000  -0.00000
  32        4S          0.00041  -0.00345  -0.00000   0.00000  -0.00000
  33        5PX         0.00003   0.00002   0.00000  -0.00000  -0.00000
  34        5PY         0.00001   0.00002   0.00000  -0.00000  -0.00000
  35        5PZ         0.00000   0.00000   0.00000  -0.00000   0.00000
  36        6PX        -0.00186  -0.00179  -0.00000   0.00000   0.00000
  37        6PY        -0.00035  -0.00137  -0.00000   0.00000   0.00000
  38        6PZ        -0.00000  -0.00000  -0.00004   0.00000  -0.00000
  39        7PX        -0.00706  -0.00671  -0.00000   0.00000   0.00000
  40        7PY        -0.00036  -0.00539  -0.00000   0.00000   0.00000
  41        7PZ        -0.00000  -0.00000  -0.00059   0.00000  -0.00001
  42        8D 0        0.00002   0.00003  -0.00000   0.00000   0.00000
  43        8D+1        0.00000   0.00000   0.00001   0.00000   0.00000
  44        8D-1       -0.00000  -0.00000  -0.00005   0.00000   0.00000
  45        8D+2        0.00001   0.00012  -0.00000   0.00000  -0.00000
  46        8D-2        0.00027   0.00003   0.00000   0.00000   0.00000
  47 4   H  1S         -0.00257  -0.00119  -0.00457   0.00000   0.00002
  48        2S         -0.00530  -0.00226  -0.00901  -0.00000  -0.00000
  49        3PX         0.00077  -0.00002  -0.00001   0.00000   0.00000
  50        3PY         0.00005  -0.00003  -0.00004   0.00000   0.00000
  51        3PZ        -0.00003  -0.00002   0.00001   0.00000   0.00000
  52 5   H  1S         -0.00257  -0.00119  -0.00457   0.00000   0.00002
  53        2S         -0.00530  -0.00226  -0.00901  -0.00000  -0.00000
  54        3PX         0.00077  -0.00002  -0.00001   0.00000   0.00000
  55        3PY         0.00005  -0.00003  -0.00004   0.00000   0.00000
  56        3PZ        -0.00003  -0.00002   0.00001   0.00000   0.00000
                          26        27        28        29        30
  26        6D-1        0.00000
  27        6D+2        0.00000   0.00055
  28        6D-2        0.00000  -0.00000   0.00044
  29 3   Cl 1S          0.00000  -0.00000   0.00000   2.17493
  30        2S          0.00000   0.00000   0.00000  -0.17660   2.33924
  31        3S          0.00000  -0.00000  -0.00000  -0.00323  -0.03479
  32        4S          0.00000  -0.00000  -0.00001   0.00504  -0.12096
  33        5PX        -0.00000   0.00000  -0.00000   0.00000   0.00000
  34        5PY         0.00000  -0.00000  -0.00000   0.00000   0.00000
  35        5PZ        -0.00000  -0.00000   0.00000   0.00000   0.00000
  36        6PX         0.00000  -0.00000   0.00000   0.00000   0.00000
  37        6PY        -0.00000   0.00000   0.00000   0.00000   0.00000
  38        6PZ         0.00000   0.00000  -0.00000   0.00000   0.00000
  39        7PX         0.00000   0.00000   0.00000   0.00000   0.00000
  40        7PY        -0.00000   0.00000   0.00001   0.00000   0.00000
  41        7PZ         0.00000   0.00000  -0.00000   0.00000   0.00000
  42        8D 0       -0.00000   0.00000   0.00000   0.00000   0.00000
  43        8D+1       -0.00000   0.00000   0.00000   0.00000  -0.00000
  44        8D-1       -0.00000   0.00000   0.00000   0.00000  -0.00000
  45        8D+2       -0.00000  -0.00000  -0.00000   0.00000  -0.00000
  46        8D-2       -0.00000   0.00000   0.00000   0.00000  -0.00000
  47 4   H  1S          0.00000   0.00000   0.00001  -0.00000   0.00000
  48        2S          0.00000  -0.00001   0.00000  -0.00000   0.00002
  49        3PX         0.00000   0.00000   0.00000   0.00000  -0.00000
  50        3PY         0.00000   0.00000  -0.00000   0.00000  -0.00000
  51        3PZ         0.00000   0.00000   0.00000  -0.00000   0.00000
  52 5   H  1S          0.00000   0.00000   0.00001  -0.00000   0.00000
  53        2S          0.00000  -0.00001   0.00000  -0.00000   0.00002
  54        3PX         0.00000   0.00000   0.00000   0.00000  -0.00000
  55        3PY         0.00000   0.00000  -0.00000   0.00000  -0.00000
  56        3PZ         0.00000   0.00000   0.00000  -0.00000   0.00000
                          31        32        33        34        35
  31        3S          0.54547
  32        4S          0.47767   0.63256
  33        5PX         0.00000   0.00000   2.12873
  34        5PY         0.00000   0.00000  -0.00000   2.09524
  35        5PZ         0.00000   0.00000   0.00000   0.00000   2.13788
  36        6PX         0.00000   0.00000  -0.10849   0.00000  -0.00000
  37        6PY         0.00000   0.00000   0.00000  -0.08047  -0.00000
  38        6PZ         0.00000   0.00000   0.00000  -0.00000  -0.11590
  39        7PX         0.00000   0.00000  -0.02175   0.00000  -0.00000
  40        7PY         0.00000   0.00000   0.00000  -0.01398  -0.00000
  41        7PZ         0.00000   0.00000   0.00000  -0.00000  -0.02434
  42        8D 0        0.00000   0.00000   0.00000   0.00000   0.00000
  43        8D+1        0.00000  -0.00000   0.00000   0.00000   0.00000
  44        8D-1        0.00000  -0.00000   0.00000   0.00000   0.00000
  45        8D+2       -0.00000  -0.00000   0.00000   0.00000   0.00000
  46        8D-2        0.00000  -0.00000   0.00000   0.00000   0.00000
  47 4   H  1S         -0.00021  -0.00094  -0.00000   0.00001   0.00000
  48        2S         -0.00016   0.00192   0.00000   0.00026   0.00011
  49        3PX         0.00000  -0.00000   0.00000  -0.00000  -0.00000
  50        3PY         0.00000  -0.00007  -0.00000  -0.00000  -0.00000
  51        3PZ        -0.00000  -0.00001   0.00000   0.00000  -0.00000
  52 5   H  1S         -0.00021  -0.00094  -0.00000   0.00001   0.00000
  53        2S         -0.00016   0.00192   0.00000   0.00026   0.00011
  54        3PX         0.00000  -0.00000   0.00000  -0.00000  -0.00000
  55        3PY         0.00000  -0.00007  -0.00000  -0.00000  -0.00000
  56        3PZ        -0.00000  -0.00001   0.00000   0.00000  -0.00000
                          36        37        38        39        40
  36        6PX         0.80803
  37        6PY        -0.00000   0.60813
  38        6PZ        -0.00000   0.00000   0.85913
  39        7PX         0.35614  -0.00000   0.00000   0.41353
  40        7PY        -0.00000   0.22524   0.00000  -0.00000   0.22513
  41        7PZ        -0.00000   0.00000   0.39930  -0.00000   0.00000
  42        8D 0        0.00000   0.00000   0.00000   0.00000   0.00000
  43        8D+1        0.00000   0.00000   0.00000   0.00000   0.00000
  44        8D-1        0.00000   0.00000   0.00000   0.00000   0.00000
  45        8D+2        0.00000   0.00000   0.00000   0.00000   0.00000
  46        8D-2        0.00000   0.00000   0.00000   0.00000   0.00000
  47 4   H  1S         -0.00000  -0.00113  -0.00045   0.00022  -0.00922
  48        2S         -0.00009  -0.00674  -0.00274   0.00013  -0.01558
  49        3PX        -0.00000   0.00001   0.00000  -0.00001   0.00004
  50        3PY         0.00001   0.00016   0.00001   0.00003   0.00064
  51        3PZ        -0.00000  -0.00002   0.00000  -0.00001  -0.00018
  52 5   H  1S         -0.00000  -0.00113  -0.00045   0.00022  -0.00922
  53        2S         -0.00009  -0.00674  -0.00274   0.00013  -0.01558
  54        3PX        -0.00000   0.00001   0.00000  -0.00001   0.00004
  55        3PY         0.00001   0.00016   0.00001   0.00003   0.00064
  56        3PZ        -0.00000  -0.00002   0.00000  -0.00001  -0.00018
                          41        42        43        44        45
  41        7PZ         0.48498
  42        8D 0        0.00000   0.00154
  43        8D+1        0.00000  -0.00000   0.00020
  44        8D-1        0.00000  -0.00000   0.00000   0.00210
  45        8D+2        0.00000   0.00000  -0.00000   0.00000   0.00325
  46        8D-2        0.00000   0.00000   0.00000   0.00000  -0.00000
  47 4   H  1S         -0.00461   0.00000   0.00001   0.00026   0.00009
  48        2S         -0.00807  -0.00004   0.00001   0.00027  -0.00009
  49        3PX         0.00001  -0.00000   0.00000  -0.00000   0.00000
  50        3PY         0.00005   0.00000   0.00000   0.00001   0.00002
  51        3PZ        -0.00000   0.00000   0.00000   0.00000   0.00001
  52 5   H  1S         -0.00461   0.00000   0.00001   0.00026   0.00009
  53        2S         -0.00807  -0.00004   0.00001   0.00027  -0.00009
  54        3PX         0.00001  -0.00000   0.00000  -0.00000   0.00000
  55        3PY         0.00005   0.00000   0.00000   0.00001   0.00002
  56        3PZ        -0.00000   0.00000   0.00000   0.00000   0.00001
                          46        47        48        49        50
  46        8D-2        0.00320
  47 4   H  1S         -0.00001   0.38858
  48        2S         -0.00005   0.09714   0.06850
  49        3PX         0.00000   0.00000   0.00000   0.00040
  50        3PY         0.00000   0.00000   0.00000  -0.00000   0.00057
  51        3PZ        -0.00000   0.00000   0.00000   0.00000  -0.00000
  52 5   H  1S         -0.00001  -0.00334  -0.01185   0.00000  -0.00000
  53        2S         -0.00005  -0.01185  -0.01477   0.00000  -0.00000
  54        3PX         0.00000   0.00000   0.00000   0.00000   0.00000
  55        3PY         0.00000  -0.00000  -0.00000   0.00000   0.00000
  56        3PZ        -0.00000   0.00063   0.00023   0.00000   0.00000
                          51        52        53        54        55
  51        3PZ         0.00144
  52 5   H  1S          0.00063   0.38858
  53        2S          0.00023   0.09714   0.06850
  54        3PX         0.00000   0.00000   0.00000   0.00040
  55        3PY         0.00000   0.00000   0.00000  -0.00000   0.00057
  56        3PZ         0.00012   0.00000   0.00000  -0.00000   0.00000
                          56
  56        3PZ         0.00144
     Gross orbital populations:
                           1
   1 1   C  1S          1.99753
   2        2S          0.71781
   3        3S          0.39565
   4        4PX         0.54519
   5        4PY         0.61365
   6        4PZ         0.79809
   7        5PX         0.12068
   8        5PY         0.22282
   9        5PZ         0.26387
  10        6D 0        0.01771
  11        6D+1        0.03014
  12        6D-1        0.01516
  13        6D+2        0.03623
  14        6D-2        0.03570
  15 2   F  1S          1.99863
  16        2S          0.90652
  17        3S          0.99690
  18        4PX         0.92505
  19        4PY         1.19239
  20        4PZ         1.21956
  21        5PX         0.53229
  22        5PY         0.70329
  23        5PZ         0.71231
  24        6D 0        0.00085
  25        6D+1        0.00128
  26        6D-1        0.00002
  27        6D+2        0.00253
  28        6D-2        0.00122
  29 3   Cl 1S          2.00006
  30        2S          2.00954
  31        3S          0.98726
  32        4S          0.94089
  33        5PX         1.99738
  34        5PY         1.99636
  35        5PZ         1.99765
  36        6PX         1.08310
  37        6PY         0.86158
  38        6PZ         1.14148
  39        7PX         0.76674
  40        7PY         0.48704
  41        7PZ         0.83569
  42        8D 0        0.00533
  43        8D+1        0.00064
  44        8D-1        0.00625
  45        8D+2        0.01047
  46        8D-2        0.01003
  47 4   H  1S          0.75092
  48        2S          0.15176
  49        3PX         0.00463
  50        3PY         0.00714
  51        3PZ         0.01528
  52 5   H  1S          0.75092
  53        2S          0.15176
  54        3PX         0.00463
  55        3PY         0.00714
  56        3PZ         0.01528
          Condensed to atoms (all electrons):
               1          2          3          4          5
     1  C    4.407758   0.343182   0.280294   0.389497   0.389497
     2  F    0.343182   8.944264  -0.039660  -0.027474  -0.027474
     3  Cl   0.280294  -0.039660  16.989036  -0.046099  -0.046099
     4  H    0.389497  -0.027474  -0.046099   0.653776  -0.039970
     5  H    0.389497  -0.027474  -0.046099  -0.039970   0.653776
 Mulliken charges:
               1
     1  C    0.189773
     2  F   -0.192838
     3  Cl  -0.137472
     4  H    0.070269
     5  H    0.070269
 Sum of Mulliken charges =  -0.00000
 Mulliken charges with hydrogens summed into heavy atoms:
               1
     1  C    0.330310
     2  F   -0.192838
     3  Cl  -0.137472
 APT charges:
               1
     1  C    0.933643
     2  F   -0.506877
     3  Cl  -0.348603
     4  H   -0.039082
     5  H   -0.039082
 Sum of APT charges =  -0.00000
 APT charges with hydrogens summed into heavy atoms:
               1
     1  C    0.855480
     2  F   -0.506877
     3  Cl  -0.348603
 Electronic spatial extent (au):  <R**2>=            237.5337
 Charge=             -0.0000 electrons
 Dipole moment (field-independent basis, Debye):
    X=             -0.8570    Y=              1.6418    Z=             -0.0000  Tot=              1.8520
 Quadrupole moment (field-independent basis, Debye-Ang):
   XX=            -25.7439   YY=            -22.2981   ZZ=            -23.0617
   XY=             -1.4033   XZ=             -0.0000   YZ=             -0.0000
 Traceless Quadrupole moment (field-independent basis, Debye-Ang):
   XX=             -2.0427   YY=              1.4031   ZZ=              0.6395
   XY=             -1.4033   XZ=             -0.0000   YZ=             -0.0000
 Octapole moment (field-independent basis, Debye-Ang**2):
  XXX=              6.3130  YYY=              3.1789  ZZZ=             -0.0000  XYY=              0.3621
  XXY=             -0.2345  XXZ=             -0.0000  XZZ=              2.5195  YZZ=              2.8389
  YYZ=             -0.0000  XYZ=             -0.0000
 Hexadecapole moment (field-independent basis, Debye-Ang**3):
 XXXX=           -111.8603 YYYY=           -121.7722 ZZZZ=            -28.4715 XXXY=            -36.0559
 XXXZ=              0.0000 YYYX=            -32.9144 YYYZ=             -0.0000 ZZZX=              0.0000
 ZZZY=              0.0000 XXYY=            -39.1337 XXZZ=            -23.2717 YYZZ=            -24.9765
 XXYZ=              0.0000 YYXZ=              0.0000 ZZXY=            -12.4153
 N-N= 1.003025619417D+02 E-N=-1.624441604996D+03  KE= 5.977236508570D+02
 Symmetry A'   KE= 5.434256860956D+02
 Symmetry A"   KE= 5.429796476143D+01
 Orbital energies and kinetic energies (alpha):
                                 1                 2
   1         O              -101.541848        137.120082
   2         O               -24.710191         37.170846
   3         O               -10.330296         15.969016
   4         O                -9.460846         21.591151
   5         O                -7.223369         20.538731
   6         O                -7.213807         20.552162
   7         O                -7.213209         20.552771
   8         O                -1.229375          3.636661
   9         O                -0.857974          2.740478
  10         O                -0.685944          2.317991
  11         O                -0.527173          1.592878
  12         O                -0.526997          2.402861
  13         O                -0.487561          2.485576
  14         O                -0.382791          2.712025
  15         O                -0.374006          2.784226
  16         O                -0.322096          2.403060
  17         O                -0.307505          2.291308
  18         V                 0.016483          2.142272
  19         V                 0.069728          1.115169
  20         V                 0.101974          0.816806
  21         V                 0.109171          2.330853
  22         V                 0.401688          1.543342
  23         V                 0.434429          1.630673
  24         V                 0.457267          2.616725
  25         V                 0.492177          2.741506
  26         V                 0.552145          2.715970
  27         V                 0.554869          2.657423
  28         V                 0.563952          2.960836
  29         V                 0.591116          2.345579
  30         V                 0.684709          2.284111
  31         V                 0.714747          2.594656
  32         V                 0.716590          2.128947
  33         V                 0.738736          2.229795
  34         V                 0.773441          2.232771
  35         V                 0.917304          2.559172
  36         V                 1.050609          3.318396
  37         V                 1.065446          2.100633
  38         V                 1.151868          3.211928
  39         V                 1.227443          3.315674
  40         V                 1.265128          3.662555
  41         V                 1.340652          3.321639
  42         V                 1.533208          2.506245
  43         V                 1.621577          3.241948
  44         V                 1.628030          2.814997
  45         V                 1.671365          3.293496
  46         V                 1.776672          3.064389
  47         V                 1.807286          2.733255
  48         V                 1.991652          2.947746
  49         V                 2.272625          4.749291
  50         V                 2.351980          4.311033
  51         V                 2.427812          4.901227
  52         V                 3.573210          5.768033
  53         V                 3.575127          5.767688
  54         V                 3.766599          6.002454
  55         V                 3.819247          6.033683
  56         V                 4.015075          6.554600
 Total kinetic energy from orbitals= 5.977236508570D+02
  Exact polarizability:      19.485       5.115      27.493       0.000      -0.000      16.325
 Approx polarizability:      28.651       8.358      38.815      -0.000      -0.000      21.638
 No NMR shielding tensors so no spin-rotation constants.
 Leave Link  601 at Sat Sep 12 17:34:54 2026, MaxMem=  1073741824 cpu:               0.1 elap:               0.1
 (Enter /app1/ia32-64/Gaussian/Rev-C.02/g16/l701.exe)
 ... and contract with generalized density number  0.
 Compute integral second derivatives.
 Leave Link  701 at Sat Sep 12 17:34:54 2026, MaxMem=  1073741824 cpu:               0.1 elap:               0.1
 (Enter /app1/ia32-64/Gaussian/Rev-C.02/g16/l702.exe)
 L702 exits ... SP integral derivatives will be done elsewhere.
 Leave Link  702 at Sat Sep 12 17:34:54 2026, MaxMem=  1073741824 cpu:               0.0 elap:               0.0
 (Enter /app1/ia32-64/Gaussian/Rev-C.02/g16/l703.exe)
 Integral derivatives from FoFJK, PRISM(SPDF).
 Compute integral second derivatives, UseDBF=F ICtDFT=           0.
 Calling FoFJK, ICntrl=    100127 FMM=F ISym2X=1 I1Cent= 0 IOpClX= 0 NMat=1 NMatS=1 NMatT=0.
 FoFJK:  IHMeth= 1 ICntrl=  100127 DoSepK=F KAlg= 0 I1Cent=           0 FoldK=F
 IRaf=         0 NMat=       1 IRICut=       1 DoRegI=T DoRafI=F ISym2E= 1 IDoP0=0 IntGTp=1.
 FoFCou: FMM=F IPFlag=           0 FMFlag=      100000 FMFlg1=         800
         NFxFlg=           0 DoJE=F BraDBF=F KetDBF=F FulRan=T
         wScrn=  0.000000 ICntrl=    100127 IOpCl=  0 I1Cent=           0 NGrid=           0
         NMat0=    1 NMatS0=      1 NMatT0=    0 NMatD0=    1 NMtDS0=    0 NMtDT0=    0
 Petite list used in FoFCou.
 Leave Link  703 at Sat Sep 12 17:34:56 2026, MaxMem=  1073741824 cpu:               2.6 elap:               2.6
 (Enter /app1/ia32-64/Gaussian/Rev-C.02/g16/l716.exe)
 Dipole        =-3.37157419D-01 6.45945765D-01-8.20401523D-17
 Polarizability= 1.94853869D+01 5.11460482D+00 2.74932850D+01
                 3.54383189D-13-2.42383891D-12 1.63246890D+01
 Full mass-weighted force constant matrix:
 Low frequencies ---   -5.0470   -1.3725   -0.0034   -0.0031    0.0021    3.6113
 Low frequencies ---  375.3777  724.1214  986.7380
 Diagonal vibrational polarizability:
        4.9338802       5.0497972       0.1160246
 Harmonic frequencies (cm**-1), IR intensities (KM/Mole), Raman scattering
 activities (A**4/AMU), depolarization ratios for plane and unpolarized
 incident light, reduced masses (AMU), force constants (mDyne/A),
 and normal coordinates:
                      1                      2                      3
                     A'                     A'                     A"
 Frequencies --    375.3777               724.1214               986.7380
 Red. masses --     15.7237                 6.5720                 1.3206
 Frc consts  --      1.3054                 2.0304                 0.7576
 IR Inten    --      1.1996                99.7989                 0.5547
  Atom  AN      X      Y      Z        X      Y      Z        X      Y      Z
     1   6     0.33  -0.18  -0.00     0.10   0.60   0.00    -0.00   0.00   0.16
     2   9     0.38   0.54   0.00    -0.00  -0.07  -0.00     0.00  -0.00  -0.03
     3  17    -0.33  -0.22  -0.00    -0.04  -0.20  -0.00     0.00   0.00  -0.02
     4   1     0.21  -0.30   0.01     0.14   0.52   0.06    -0.07   0.66  -0.21
     5   1     0.21  -0.30  -0.01     0.14   0.52  -0.06     0.07  -0.66  -0.21
                      4                      5                      6
                     A'                     A"                     A'
 Frequencies --   1100.5927              1236.5308              1348.3027
 Red. masses --      8.3083                 1.0942                 1.1401
 Frc consts  --      5.9295                 0.9857                 1.2212
 IR Inten    --    175.6083                 3.4140                43.4534
  Atom  AN      X      Y      Z        X      Y      Z        X      Y      Z
     1   6     0.60  -0.06  -0.00    -0.00  -0.00  -0.07    -0.05  -0.09   0.00
     2   9    -0.42   0.04   0.00     0.00   0.00   0.04    -0.02   0.02  -0.00
     3  17    -0.00   0.01  -0.00     0.00  -0.00  -0.01     0.00  -0.01   0.00
     4   1     0.42  -0.23   0.01     0.67   0.21   0.08     0.45   0.53  -0.12
     5   1     0.42  -0.23  -0.01    -0.67  -0.21   0.08     0.45   0.53   0.12
                      7                      8                      9
                     A'                     A'                     A"
 Frequencies --   1476.7020              3075.0250              3156.8188
 Red. masses --      1.0961                 1.0522                 1.1201
 Frc consts  --      1.4083                 5.8620                 6.5768
 IR Inten    --      1.1196                26.0366                15.0367
  Atom  AN      X      Y      Z        X      Y      Z        X      Y      Z
     1   6    -0.08   0.04   0.00     0.04  -0.05  -0.00    -0.00   0.00  -0.10
     2   9    -0.00   0.01  -0.00     0.00   0.00   0.00    -0.00   0.00   0.00
     3  17     0.00   0.00   0.00    -0.00   0.00   0.00     0.00  -0.00   0.00
     4   1     0.48  -0.33   0.40    -0.23   0.30   0.60    -0.23   0.31   0.59
     5   1     0.48  -0.33  -0.40    -0.23   0.30  -0.60     0.23  -0.31   0.59

 -------------------
 - Thermochemistry -
 -------------------
 Temperature   298.150 Kelvin.  Pressure   1.00000 Atm.
 Atom     1 has atomic number  6 and mass  12.00000
 Atom     2 has atomic number  9 and mass  18.99840
 Atom     3 has atomic number 17 and mass  34.96885
 Atom     4 has atomic number  1 and mass   1.00783
 Atom     5 has atomic number  1 and mass   1.00783
 Molecular mass:    67.98291 amu.
 Principal axes and moments of inertia in atomic units:
                           1         2         3
     Eigenvalues --    43.14462 325.63040 356.76930
           X            0.72053  -0.69343   0.00000
           Y            0.69343   0.72053   0.00000
           Z            0.00000  -0.00000   1.00000
 This molecule is an asymmetric top.
 Rotational symmetry number  1.
 Rotational temperatures (Kelvin)      2.00753     0.26599     0.24277
 Rotational constants (GHZ):          41.83004     5.54230     5.05857
 Zero-point vibrational energy      80629.6 (Joules/Mol)
                                   19.27093 (Kcal/Mol)
 Warning -- explicit consideration of   1 degrees of freedom as
           vibrations may cause significant error
 Vibrational temperatures:    540.08  1041.85  1419.70  1583.51  1779.09
          (Kelvin)           1939.91  2124.64  4424.28  4541.96
 
 Zero-point correction=                           0.030710 (Hartree/Particle)
 Thermal correction to Energy=                    0.034073
 Thermal correction to Enthalpy=                  0.035017
 Thermal correction to Gibbs Free Energy=         0.004957
 Sum of electronic and zero-point Energies=           -599.331342
 Sum of electronic and thermal Energies=              -599.327980
 Sum of electronic and thermal Enthalpies=            -599.327035
 Sum of electronic and thermal Free Energies=         -599.357096
 
                     E (Thermal)             CV                S
                      KCal/Mol        Cal/Mol-Kelvin    Cal/Mol-Kelvin
 Total                   21.381              9.329             63.268
 Electronic               0.000              0.000              0.000
 Translational            0.889              2.981             38.568
 Rotational               0.889              2.981             23.132
 Vibrational             19.604              3.367              1.568
 Vibration     1          0.746              1.523              1.058
                       Q            Log10(Q)             Ln(Q)
 Total Bot       0.524936D-02         -2.279894         -5.249650
 Total V=0       0.701122D+12         11.845794         27.275948
 Vib (Bot)       0.940129D-14        -14.026813        -32.297930
 Vib (Bot)    1  0.483213D+00         -0.315861         -0.727298
 Vib (V=0)       0.125567D+01          0.098875          0.227668
 Vib (V=0)    1  0.119534D+01          0.077491          0.178429
 Electronic      0.100000D+01          0.000000          0.000000
 Translational   0.220320D+08          7.343053         16.908005
 Rotational      0.253434D+05          4.403865         10.140274
 
                    CH2FCl opt+freq / B3LYP/cc-pVDZ (reasonable accuracy) -- also
  used for density/ESP map and BDE
                                                             IR Spectrum
 
     3   3                                                               1    1    1    1                                            
     1   0                                                               4    3    2    1    9         7             3               
     5   7                                                               7    4    3    0    8         2             7               
     7   5                                                               7    8    7    1    7         4             5               
 
     X   X                                                               X    X    X    X    X         X             X               
     X   X                                                                    X         X              X                             
         X                                                                    X         X              X                             
                                                                              X         X              X                             
                                                                              X         X              X                             
                                                                                        X              X                             
                                                                                        X              X                             
                                                                                        X              X                             
                                                                                        X              X                             
                                                                                        X              X                             
                                                                                        X              X                             
                                                                                        X                                            
                                                                                        X                                            
                                                                                        X                                            
                                                                                        X                                            
                                                                                        X                                            
                                                                                        X                                            
                                                                                        X                                            
                                                                                        X                                            
                                                                                        X                                            
 
 ***** Axes restored to original set *****
 -------------------------------------------------------------------
 Center     Atomic                   Forces (Hartrees/Bohr)
 Number     Number              X              Y              Z
 -------------------------------------------------------------------
      1        6           0.000002866    0.000000000    0.000000999
      2        9          -0.000000294    0.000000000   -0.000000459
      3       17           0.000000568    0.000000000   -0.000001374
      4        1          -0.000001570   -0.000002503    0.000000417
      5        1          -0.000001570    0.000002503    0.000000417
 -------------------------------------------------------------------
 Cartesian Forces:  Max     0.000002866 RMS     0.000001403
 Force constants in Cartesian coordinates: 
                1             2             3             4             5 
      1  0.369937D+00
      2  0.000000D+00  0.629573D+00
      3  0.949587D-01  0.000000D+00  0.465028D+00
      4 -0.608278D-01  0.000000D+00 -0.850711D-02  0.535710D-01
      5  0.000000D+00 -0.743787D-01  0.000000D+00  0.000000D+00  0.489012D-01
      6 -0.377189D-01  0.000000D+00 -0.292561D+00  0.477507D-02  0.000000D+00
      7 -0.122216D+00  0.000000D+00  0.215145D-02 -0.507933D-02  0.000000D+00
      8  0.000000D+00 -0.402874D-01  0.000000D+00  0.000000D+00  0.574578D-02
      9  0.167289D-01  0.000000D+00 -0.293912D-01  0.337443D-01  0.000000D+00
     10 -0.934469D-01 -0.991830D-01 -0.443015D-01  0.616807D-02 -0.422755D-04
     11 -0.100329D+00 -0.257453D+00 -0.725547D-01  0.202336D-02  0.986582D-02
     12 -0.369843D-01 -0.636168D-01 -0.715377D-01 -0.150061D-01 -0.304244D-01
     13 -0.934469D-01  0.991830D-01 -0.443015D-01  0.616807D-02  0.422755D-04
     14  0.100329D+00 -0.257453D+00  0.725547D-01 -0.202336D-02  0.986582D-02
     15 -0.369843D-01  0.636168D-01 -0.715377D-01 -0.150061D-01  0.304244D-01
                6             7             8             9            10 
      6  0.384077D+00
      7  0.335239D-01  0.176100D+00
      8  0.000000D+00  0.000000D+00  0.219047D-01
      9 -0.267278D-01 -0.539049D-01  0.000000D+00  0.486996D-01
     10 -0.290021D-03 -0.244024D-01 -0.169047D-01  0.171589D-02  0.102223D+00
     11 -0.168796D-02  0.488686D-02  0.631850D-02  0.345550D-03  0.104774D+00
     12 -0.323937D-01  0.911480D-02  0.587050D-02  0.370967D-02  0.393334D-01
     13 -0.290021D-03 -0.244024D-01  0.169047D-01  0.171589D-02  0.945831D-02
     14  0.168796D-02 -0.488686D-02  0.631850D-02 -0.345550D-03  0.113558D-01
     15 -0.323937D-01  0.911480D-02 -0.587050D-02  0.370967D-02  0.354225D-02
               11            12            13            14            15 
     11  0.257131D+00
     12  0.810339D-01  0.928090D-01
     13 -0.113558D-01  0.354225D-02  0.102223D+00
     14 -0.158619D-01  0.713678D-02 -0.104774D+00  0.257131D+00
     15 -0.713678D-02  0.741274D-02  0.393334D-01 -0.810339D-01  0.928090D-01
 FormGI is forming the generalized inverse of G from B-inverse, IUseBI=4.
 Force constants in internal coordinates: 
                1             2             3             4             5 
      1  0.384064D+00
      2  0.407801D-01  0.195840D+00
      3  0.125241D-01  0.416672D-02  0.342344D+00
      4  0.125241D-01  0.416672D-02  0.236719D-02  0.342344D+00
      5  0.253248D-02  0.307890D-02  0.145536D-02  0.118310D-02  0.322214D-01
      6  0.118639D-01  0.618701D-03 -0.282771D-03 -0.435503D-02 -0.951179D-02
      7  0.218363D-01 -0.962670D-02 -0.369548D-02  0.140520D-02 -0.185702D-01
      8 -0.155633D-02  0.943450D-02 -0.306926D-02 -0.290706D-02 -0.912368D-02
      9 -0.140690D-01  0.168921D-01 -0.316651D-02 -0.429441D-02 -0.171669D-01
     10 -0.218176D-01 -0.193478D-01  0.875631D-02  0.890268D-02  0.234413D-01
     11 -0.880696D-02 -0.965737D-02  0.231906D-03  0.275768D-02 -0.279827D-01
     12  0.699267D-02  0.831474D-02 -0.221264D-02 -0.336149D-03  0.181003D-01
     13 -0.158839D-01  0.195253D-01 -0.302958D-02 -0.157742D-02  0.938633D-02
     14 -0.228766D-01  0.112105D-01 -0.816937D-03 -0.124127D-02 -0.871400D-02
                6             7             8             9            10 
      6  0.575520D-01
      7 -0.402785D-01  0.101556D+00
      8  0.152295D-02  0.198547D-01  0.430839D-01
      9  0.226980D-01 -0.358319D-01 -0.291469D-01  0.840005D-01
     10 -0.321699D-01 -0.294912D-01 -0.267428D-01 -0.234192D-01  0.896013D-01
     11 -0.218909D-01  0.332405D-01 -0.154775D-01  0.251777D-01  0.581409D-02
     12 -0.206541D-01  0.135967D-01 -0.171038D-01  0.906072D-02 -0.233024D-02
     13 -0.226287D-01 -0.107138D-02  0.223055D-02  0.128737D-01  0.596567D-03
     14 -0.197463D-02 -0.146681D-01  0.193343D-01  0.381301D-02  0.292681D-02
               11            12            13            14 
     11  0.551931D-01
     12  0.241801D-04  0.348189D-01
     13  0.133724D-03  0.183361D-01  0.294194D-01
     14  0.109544D-03 -0.164828D-01  0.110833D-01  0.275661D-01
 Leave Link  716 at Sat Sep 12 17:34:56 2026, MaxMem=  1073741824 cpu:               0.0 elap:               0.0
 (Enter /app1/ia32-64/Gaussian/Rev-C.02/g16/l103.exe)

 GradGradGradGradGradGradGradGradGradGradGradGradGradGradGradGradGradGrad
 Berny optimization.
 Red2BG is reusing G-inverse.
 Internal  Forces:  Max     0.000002658 RMS     0.000001173
 Search for a local minimum.
 Step number   1 out of a maximum of    2
 All quantities printed in internal units (Hartrees-Bohrs-Radians)
 Second derivative matrix not updated -- analytic derivatives used.
 The second derivative matrix:
                          R1        R2        R3        R4        A1
           R1           0.38406
           R2           0.04078   0.19584
           R3           0.01252   0.00417   0.34234
           R4           0.01252   0.00417   0.00237   0.34234
           A1           0.00253   0.00308   0.00146   0.00118   0.03222
           A2           0.01186   0.00062  -0.00028  -0.00436  -0.00951
           A3           0.02184  -0.00963  -0.00370   0.00141  -0.01857
           A4          -0.00156   0.00943  -0.00307  -0.00291  -0.00912
           A5          -0.01407   0.01689  -0.00317  -0.00429  -0.01717
           A6          -0.02182  -0.01935   0.00876   0.00890   0.02344
           D1          -0.00881  -0.00966   0.00023   0.00276  -0.02798
           D2           0.00699   0.00831  -0.00221  -0.00034   0.01810
           D3          -0.01588   0.01953  -0.00303  -0.00158   0.00939
           D4          -0.02288   0.01121  -0.00082  -0.00124  -0.00871
                          A2        A3        A4        A5        A6
           A2           0.05755
           A3          -0.04028   0.10156
           A4           0.00152   0.01985   0.04308
           A5           0.02270  -0.03583  -0.02915   0.08400
           A6          -0.03217  -0.02949  -0.02674  -0.02342   0.08960
           D1          -0.02189   0.03324  -0.01548   0.02518   0.00581
           D2          -0.02065   0.01360  -0.01710   0.00906  -0.00233
           D3          -0.02263  -0.00107   0.00223   0.01287   0.00060
           D4          -0.00197  -0.01467   0.01933   0.00381   0.00293
                          D1        D2        D3        D4
           D1           0.05519
           D2           0.00002   0.03482
           D3           0.00013   0.01834   0.02942
           D4           0.00011  -0.01648   0.01108   0.02757
 ITU=  0
     Eigenvalues ---    0.04858   0.07017   0.11694   0.13563   0.15780
     Eigenvalues ---    0.20506   0.34013   0.34097   0.40433
 Angle between quadratic step and forces=  39.70 degrees.
 Linear search not attempted -- first point.
 Iteration  1 RMS(Cart)=  0.00000524 RMS(Int)=  0.00000000
 Iteration  2 RMS(Cart)=  0.00000000 RMS(Int)=  0.00000000
 ITry= 1 IFail=0 DXMaxC= 9.10D-06 DCOld= 1.00D+10 DXMaxT= 3.00D-01 DXLimC= 3.00D+00 Rises=F
 ClnCor:  largest displacement from symmetrization is 1.33D-11 for atom     5.
 Variable       Old X    -DE/DX   Delta X   Delta X   Delta X     New X
                                 (Linear)    (Quad)   (Total)
    R1        2.57182  -0.00000   0.00000  -0.00000  -0.00000   2.57182
    R2        3.40697   0.00000   0.00000   0.00000   0.00000   3.40697
    R3        2.07605   0.00000   0.00000   0.00001   0.00001   2.07606
    R4        2.07605   0.00000   0.00000   0.00001   0.00001   2.07606
    A1        1.92977   0.00000   0.00000   0.00000   0.00000   1.92977
    A2        1.91650  -0.00000   0.00000  -0.00001  -0.00001   1.91649
    A3        1.91650  -0.00000   0.00000  -0.00001  -0.00001   1.91649
    A4        1.86873  -0.00000   0.00000   0.00000   0.00000   1.86873
    A5        1.86873   0.00000   0.00000   0.00000   0.00000   1.86873
    A6        1.96271   0.00000   0.00000   0.00000   0.00000   1.96272
    D1       -2.09579  -0.00000   0.00000  -0.00000  -0.00000  -2.09579
    D2        2.09579   0.00000   0.00000   0.00000   0.00000   2.09579
    D3       -2.13954   0.00000   0.00000   0.00001   0.00001  -2.13952
    D4        2.04786   0.00000   0.00000   0.00001   0.00001   2.04787
         Item               Value     Threshold  Converged?
 Maximum Force            0.000003     0.000015     YES
 RMS     Force            0.000001     0.000010     YES
 Maximum Displacement     0.000009     0.000060     YES
 RMS     Displacement     0.000005     0.000040     YES
 Predicted change in Energy=-3.995375D-11
 Optimization completed.
    -- Stationary point found.
                           ----------------------------
                           !   Optimized Parameters   !
                           ! (Angstroms and Degrees)  !
 --------------------------                            --------------------------
 ! Name  Definition              Value          Derivative Info.                !
 --------------------------------------------------------------------------------
 ! R1    R(1,2)                  1.361          -DE/DX =    0.0                 !
 ! R2    R(1,3)                  1.8029         -DE/DX =    0.0                 !
 ! R3    R(1,4)                  1.0986         -DE/DX =    0.0                 !
 ! R4    R(1,5)                  1.0986         -DE/DX =    0.0                 !
 ! A1    A(2,1,3)              110.5675         -DE/DX =    0.0                 !
 ! A2    A(2,1,4)              109.8073         -DE/DX =    0.0                 !
 ! A3    A(2,1,5)              109.8073         -DE/DX =    0.0                 !
 ! A4    A(3,1,4)              107.0702         -DE/DX =    0.0                 !
 ! A5    A(3,1,5)              107.0702         -DE/DX =    0.0                 !
 ! A6    A(4,1,5)              112.4552         -DE/DX =    0.0                 !
 ! D1    D(2,1,4,3)           -120.0798         -DE/DX =    0.0                 !
 ! D2    D(2,1,5,3)            120.0798         -DE/DX =    0.0                 !
 ! D3    D(2,1,5,4)           -122.5864         -DE/DX =    0.0                 !
 ! D4    D(3,1,5,4)            117.3338         -DE/DX =    0.0                 !
 --------------------------------------------------------------------------------
 GradGradGradGradGradGradGradGradGradGradGradGradGradGradGradGradGradGrad

 Leave Link  103 at Sat Sep 12 17:34:56 2026, MaxMem=  1073741824 cpu:               0.0 elap:               0.1
 (Enter /app1/ia32-64/Gaussian/Rev-C.02/g16/l9999.exe)

 ----------------------------------------------------------------------

 Electric dipole moment (input orientation):
 (Debye = 10**-18 statcoulomb cm , SI units = C m)
                  (au)            (Debye)         (10**-30 SI)
   Tot        0.728643D+00      0.185203D+01      0.617770D+01
   x         -0.636326D+00     -0.161738D+01     -0.539499D+01
   y          0.000000D+00      0.000000D+00      0.000000D+00
   z         -0.354980D+00     -0.902269D+00     -0.300964D+01

 Dipole polarizability, Alpha (input orientation).
 (esu units = cm**3 , SI units = C**2 m**2 J**-1)
 Alpha(0;0):
               (au)            (10**-24 esu)      (10**-40 SI)
   iso        0.211011D+02      0.312686D+01      0.347910D+01
   aniso      0.133381D+02      0.197650D+01      0.219915D+01
   xx         0.277713D+02      0.411528D+01      0.457887D+01
   yx         0.000000D+00      0.000000D+00      0.000000D+00
   yy         0.163247D+02      0.241907D+01      0.269158D+01
   zx        -0.488423D+01     -0.723768D+00     -0.805300D+00
   zy         0.000000D+00      0.000000D+00      0.000000D+00
   zz         0.192074D+02      0.284624D+01      0.316687D+01

 ----------------------------------------------------------------------

 Dipole orientation:
     6         -0.02608606         -0.00000000          0.02451566
     9         -2.27360995         -0.00000000         -1.22564901
    17          2.57045885         -0.00000000         -2.18125240
     1          0.14397695          1.72572495          1.16598625
     1          0.14397695         -1.72572495          1.16598625

 Electric dipole moment (dipole orientation):
 (Debye = 10**-18 statcoulomb cm , SI units = C m)
                  (au)            (Debye)         (10**-30 SI)
   Tot        0.728643D+00      0.185203D+01      0.617770D+01
   x          0.000000D+00      0.000000D+00      0.000000D+00
   y          0.000000D+00      0.000000D+00      0.000000D+00
   z          0.728643D+00      0.185203D+01      0.617770D+01

 Dipole polarizability, Alpha (dipole orientation).
 (esu units = cm**3 , SI units = C**2 m**2 J**-1)
 Alpha(0;0):
               (au)            (10**-24 esu)      (10**-40 SI)
   iso        0.211011D+02      0.312686D+01      0.347910D+01
   aniso      0.133381D+02      0.197650D+01      0.219915D+01
   xx         0.253960D+02      0.376330D+01      0.418724D+01
   yx         0.000000D+00      0.000000D+00      0.000000D+00
   yy         0.163247D+02      0.241907D+01      0.269158D+01
   zx        -0.620930D+01     -0.920123D+00     -0.102378D+01
   zy         0.000000D+00      0.000000D+00      0.000000D+00
   zz         0.215827D+02      0.319822D+01      0.355850D+01

 ----------------------------------------------------------------------
 Unable to Open any file for archive entry.
 1\1\GINC-CNODE-33-43-49\Freq\RB3LYP\CC-pVDZ\C1H2Cl1F1\ZHANGXUBO\12-Sep
 -2026\0\\#P Geom=AllCheck Guess=TCheck SCRF=Check GenChk RB3LYP/CC-pVD
 Z Freq\\CH2FCl opt+freq / B3LYP/cc-pVDZ (reasonable accuracy) -- also 
 used for density/ESP map and BDE\\0,1\C,-0.0180545537,0.,0.0057349499\
 F,-0.0197350077,0.,1.3666842207\Cl,1.6707004279,0.,-0.6255541745\H,-0.
 5017211508,-0.9132143148,-0.3671323676\H,-0.5017211508,0.9132143148,-0
 .3671323676\\Version=ES64L-G16RevC.02\State=1-A'\HF=-599.3620525\RMSD=
 9.038e-10\RMSF=1.403e-06\ZeroPoint=0.0307102\Thermal=0.0340729\ETot=-5
 99.3279796\HTot=-599.3270354\GTot=-599.3570959\Dipole=-0.6363257,0.,-0
 .3549799\DipoleDeriv=1.0862397,0.,-0.3134121,0.,0.4670552,0.,-0.466753
 6,0.,1.2476342,-0.2986814,0.,0.0420182,0.,-0.2250803,0.,0.2799686,0.,-
 0.9968679,-0.6236592,0.,0.2341739,0.,-0.1624219,0.,0.1505333,0.,-0.259
 729,-0.0819496,-0.0554642,0.01861,-0.061289,-0.0397765,-0.0482445,0.01
 81258,-0.007509,0.0044814,-0.0819496,0.0554642,0.01861,0.061289,-0.039
 7765,0.0482445,0.0181258,0.007509,0.0044814\Polar=27.7712887,0.,16.324
 689,-4.8842267,0.,19.2073832\Quadrupole=0.9832468,0.47548,-1.4587268,0
 .,1.1128668,0.\PG=CS [SG(C1Cl1F1),X(H2)]\NImag=0\\0.36993723,0.,0.6295
 7287,0.09495866,0.,0.46502791,-0.06082776,0.,-0.00850711,0.05357096,0.
 ,-0.07437865,0.,0.,0.04890123,-0.03771892,0.,-0.29256131,0.00477507,0.
 ,0.38407651,-0.12221569,0.,0.00215145,-0.00507933,0.,0.03352389,0.1760
 9985,0.,-0.04028744,0.,0.,0.00574578,0.,0.,0.02190467,0.01672887,0.,-0
 .02939116,0.03374428,0.,-0.02672782,-0.05390494,0.,0.04869964,-0.09344
 688,-0.09918301,-0.04430150,0.00616807,-0.00004228,-0.00029002,-0.0244
 0241,-0.01690475,0.00171589,0.10222292,-0.10032872,-0.25745339,-0.0725
 5474,0.00202336,0.00986582,-0.00168796,0.00488686,0.00631850,0.0003455
 5,0.10477427,0.25713100,-0.03698431,-0.06361681,-0.07153772,-0.0150061
 2,-0.03042441,-0.03239369,0.00911480,0.00587050,0.00370967,0.03933337,
 0.08103394,0.09280901,-0.09344688,0.09918301,-0.04430150,0.00616807,0.
 00004228,-0.00029002,-0.02440241,0.01690475,0.00171589,0.00945831,-0.0
 1135577,0.00354225,0.10222292,0.10032872,-0.25745339,0.07255474,-0.002
 02336,0.00986582,0.00168796,-0.00488686,0.00631850,-0.00034555,0.01135
 577,-0.01586193,0.00713678,-0.10477427,0.25713100,-0.03698431,0.063616
 81,-0.07153772,-0.01500612,0.03042441,-0.03239369,0.00911480,-0.005870
 50,0.00370967,0.00354225,-0.00713678,0.00741274,0.03933337,-0.08103394
 ,0.09280901\\-0.00000287,0.,-0.00000100,0.00000029,0.,0.00000046,-0.00
 000057,0.,0.00000137,0.00000157,0.00000250,-0.00000042,0.00000157,-0.0
 0000250,-0.00000042\\\@
 The archive entry for this job was punched.


 IF IT'S NOT TRUE, IT'S WELL INVENTED -- DANTE
 Job cpu time:       0 days  0 hours  0 minutes  7.6 seconds.
 Elapsed time:       0 days  0 hours  0 minutes  7.9 seconds.
 File lengths (MBytes):  RWF=      6 Int=      0 D2E=      0 Chk=      2 Scr=      1
 Normal termination of Gaussian 16 at Sat Sep 12 17:34:57 2026.
