CH2FCl opt+freq / B3LYP/cc-pVDZ (reasonable accuracy) -- also used for d
Freq      RB3LYP                                                      CC-pVDZ             
Number of atoms                            I                5
Info1-9                                    I   N=           9
          14          14        1002           0           0         100
           6          18        -502
Full Title                                 C   N=           8
CH2FCl opt+freq / B3LYP/cc-pVDZ (reasonable accuracy) -- als
o used for density/ESP map and BDE  
Route                                      C   N=           5
#p b3lyp/cc-pVDZ opt=tight freq pop=full int=ultrafine      
Charge                                     I                0
Multiplicity                               I                1
Number of electrons                        I               34
Number of alpha electrons                  I               17
Number of beta electrons                   I               17
Number of basis functions                  I               56
Number of independent functions            I               56
Number of point charges in /Mol/           I                0
Number of translation vectors              I                0
Atomic numbers                             I   N=           5
           6           9          17           1           1
Nuclear charges                            R   N=           5
  6.00000000E+00  9.00000000E+00  1.70000000E+01  1.00000000E+00  1.00000000E+00
Current cartesian coordinates              R   N=          15
  1.71929398E-16  1.54163258E+00  5.51456050E-32  2.57091616E+00  1.47332862E+00
 -3.11481440E-31 -1.28119770E+00 -1.61526315E+00  1.08149450E-31 -6.78942299E-01
  2.47486025E+00  1.72572495E+00 -6.78942299E-01  2.47486025E+00 -1.72572495E+00
Number of symbols in /Mol/                 I                0
Int Atom Types                             I   N=           5
           0           0           0           0           0
Force Field                                I                0
Atom Types                                 C   N=           5
                                                            
MM charges                                 R   N=           5
  0.00000000E+00  0.00000000E+00  0.00000000E+00  0.00000000E+00  0.00000000E+00
Integer atomic weights                     I   N=           5
          12          19          35           1           1
Real atomic weights                        R   N=           5
  1.20000000E+01  1.89984032E+01  3.49688527E+01  1.00782504E+00  1.00782504E+00
Atom fragment info                         I   N=           5
           0           0           0           0           0
Atom residue num                           I   N=           5
           0           0           0           0           0
Nuclear spins                              I   N=           5
           0           1           3           1           1
Nuclear ZEff                               R   N=           5
 -3.60000000E+00 -6.75000000E+00 -1.42400000E+01 -1.00000000E+00 -1.00000000E+00
Nuclear ZNuc                               R   N=           5
  6.00000000E+00  9.00000000E+00  1.70000000E+01  1.00000000E+00  1.00000000E+00
Nuclear QMom                               R   N=           5
  0.00000000E+00  0.00000000E+00 -8.16500000E+00  0.00000000E+00  0.00000000E+00
Nuclear GFac                               R   N=           5
  0.00000000E+00  2.62886700E+00  8.21874000E-01  2.79284600E+00  2.79284600E+00
MicOpt                                     I   N=           5
          -1          -1          -1          -1          -1
Number of residues                         I                0
Number of secondary structures             I                0
Redundant internal dimensions              I   N=           4
          14           4           6           4
Redundant internal coordinate indices      I   N=          56
           1           2           0           0           1           3
           0           0           1           4           0           0
           1           5           0           0           2           1
           3           0           2           1           4           0
           2           1           5           0           3           1
           4           0           3           1           5           0
           4           1           5           0           2           1
           4           3           2           1           5           3
           2           1           5           4           3           1
           5           4
Redundant internal coordinates             R   N=          14
  2.57182335E+00  3.40697200E+00  2.07605470E+00  2.07605470E+00  1.92976618E+00
  1.91649928E+00  1.91649928E+00  1.86872672E+00  1.86872672E+00  1.96271282E+00
 -2.09578767E+00  2.09578767E+00 -2.13953642E+00  2.04786122E+00
ZRed-IntVec                                I   N=          14
           0           0           0           0           0           0
           0           0           0           0           0           0
           0           0
ZRed-FPVec                                 R   N=          14
  0.00000000E+00  0.00000000E+00  0.00000000E+00  0.00000000E+00  0.00000000E+00
  0.00000000E+00  0.00000000E+00  0.00000000E+00  0.00000000E+00  0.00000000E+00
  0.00000000E+00  0.00000000E+00  0.00000000E+00  0.00000000E+00
ZRed-Constraint1                           R   N=          14
  2.57182335E+00  3.40697200E+00  2.07605470E+00  2.07605470E+00  1.92976618E+00
  1.91649928E+00  1.91649928E+00  1.86872672E+00  1.86872672E+00  1.96271282E+00
 -2.09578767E+00  2.09578767E+00 -2.13953642E+00  2.04786122E+00
ZRed-Constraint2                           R   N=          14
  2.57002753E+00  3.32591798E+00  2.05980148E+00  2.05980148E+00  1.91986218E+00
  1.91986218E+00  1.91986218E+00  1.90131464E+00  1.90131464E+00  1.90131464E+00
 -2.10560609E+00  2.10560609E+00 -2.10560609E+00  2.07197314E+00
SymInf integers                            I   N=          26
           2           2           1           1           1           1
           1          -1           0           0           0           0
           0           0           0           0           0           0
           0           0           0           0           0           0
           0           0
RotTr to input orientation                 R   N=          12
 -2.77928805E-02 -3.44615360E-16  9.99613703E-01 -9.99613703E-01  4.36575865E-16
 -2.77928805E-02 -4.26829364E-16 -1.00000000E+00 -3.56615937E-16  1.50691889E+00
  0.00000000E+00  5.36838947E-02
Number of contracted shells                I               26
Number of primitive shells                 I               90
Pure/Cartesian d shells                    I                0
Pure/Cartesian f shells                    I                0
Highest angular momentum                   I                2
Largest degree of contraction              I                9
Shell types                                I   N=          26
           0           0           0           1           1          -2
           0           0           0           1           1          -2
           0           0           0           0           1           1
           1          -2           0           0           1           0
           0           1
Number of primitives per shell             I   N=          26
           7           7           1           3           1           1
           7           7           1           3           1           1
           9           8           8           1           6           6
           1           1           3           1           1           3
           1           1
Shell to atom map                          I   N=          26
           1           1           1           1           1           1
           2           2           2           2           2           2
           3           3           3           3           3           3
           3           3           4           4           4           5
           5           5
Primitive exponents                        R   N=          90
  6.66500000E+03  1.00000000E+03  2.28000000E+02  6.47100000E+01  2.10600000E+01
  7.49500000E+00  2.79700000E+00  6.66500000E+03  2.28000000E+02  6.47100000E+01
  2.10600000E+01  7.49500000E+00  2.79700000E+00  5.21500000E-01  1.59600000E-01
  9.43900000E+00  2.00200000E+00  5.45600000E-01  1.51700000E-01  5.50000000E-01
  1.47100000E+04  2.20700000E+03  5.02800000E+02  1.42600000E+02  4.64700000E+01
  1.67000000E+01  6.35600000E+00  1.47100000E+04  5.02800000E+02  1.42600000E+02
  4.64700000E+01  1.67000000E+01  6.35600000E+00  1.31600000E+00  3.89700000E-01
  2.26700000E+01  4.97700000E+00  1.34700000E+00  3.47100000E-01  1.64000000E+00
  1.27900000E+05  1.91700000E+04  4.36300000E+03  1.23600000E+03  4.03600000E+02
  1.45700000E+02  5.68100000E+01  2.32300000E+01  6.64400000E+00  4.36300000E+03
  1.23600000E+03  4.03600000E+02  1.45700000E+02  5.68100000E+01  2.32300000E+01
  6.64400000E+00  2.57500000E+00  4.36300000E+03  1.23600000E+03  1.45700000E+02
  5.68100000E+01  2.32300000E+01  6.64400000E+00  2.57500000E+00  5.37100000E-01
  1.93800000E-01  4.17600000E+02  9.83300000E+01  3.10400000E+01  1.11900000E+01
  4.24900000E+00  1.62400000E+00  9.83300000E+01  3.10400000E+01  1.11900000E+01
  4.24900000E+00  1.62400000E+00  5.32200000E-01  1.62000000E-01  6.00000000E-01
  1.30100000E+01  1.96200000E+00  4.44600000E-01  1.22000000E-01  7.27000000E-01
  1.30100000E+01  1.96200000E+00  4.44600000E-01  1.22000000E-01  7.27000000E-01
Contraction coefficients                   R   N=          90
  6.93516317E-04  5.34150243E-03  2.71366714E-02  1.01992385E-01  2.75508636E-01
  4.51086433E-01  2.87565745E-01  7.73354740E-06  2.78072137E-04 -2.57875654E-03
 -8.95087684E-03 -1.06058855E-01 -1.31517686E-01  1.09948660E+00  1.00000000E+00
  5.69792516E-02  3.13207212E-01  7.60376742E-01  1.00000000E+00  1.00000000E+00
  7.22953515E-04  5.56905556E-03  2.83442975E-02  1.06795698E-01  2.87809731E-01
  4.51705488E-01  2.66882908E-01  9.32971747E-06  3.15303964E-04 -3.12568701E-03
 -1.18427057E-02 -1.25737691E-01 -9.65021910E-02  1.09403631E+00  1.00000000E+00
  6.48340215E-02  3.40535360E-01  7.34646407E-01  1.00000000E+00  1.00000000E+00
  2.40803156E-04  1.86828140E-03  9.69415404E-03  3.92582859E-02  1.25735640E-01
  2.98835200E-01  4.20875448E-01  2.36540589E-01  2.17322909E-02 -5.50965114E-05
 -1.82705209E-04 -3.34996367E-03 -1.55111266E-02 -8.10548045E-02 -6.24298683E-02
  5.01750267E-01  6.03592477E-01 -8.77557694E-06  3.25540258E-05  1.77967512E-03
  5.05593898E-03  1.35133904E-02 -1.32494342E-01 -4.36057676E-01  1.23760137E+00
  1.00000000E+00  5.26446499E-03  3.98680852E-02  1.64806877E-01  3.87680685E-01
  4.57565020E-01  1.51359774E-01  1.40055574E-04 -3.10434972E-03 -7.98395520E-03
 -4.28887909E-02  1.96814053E-01  8.72292913E-01  1.00000000E+00  1.00000000E+00
  3.34987264E-02  2.34800801E-01  8.13682958E-01  1.00000000E+00  1.00000000E+00
  3.34987264E-02  2.34800801E-01  8.13682958E-01  1.00000000E+00  1.00000000E+00
Coordinates of each shell                  R   N=          78
  1.30309437E-16  1.54163258E+00 -3.10894074E-32  1.30309437E-16  1.54163258E+00
 -3.10894074E-32  1.30309437E-16  1.54163258E+00 -3.10894074E-32  1.30309437E-16
  1.54163258E+00 -3.10894074E-32  1.30309437E-16  1.54163258E+00 -3.10894074E-32
  1.30309437E-16  1.54163258E+00 -3.10894074E-32  2.57091616E+00  1.47332862E+00
 -1.53112151E-31  2.57091616E+00  1.47332862E+00 -1.53112151E-31  2.57091616E+00
  1.47332862E+00 -1.53112151E-31  2.57091616E+00  1.47332862E+00 -1.53112151E-31
  2.57091616E+00  1.47332862E+00 -1.53112151E-31  2.57091616E+00  1.47332862E+00
 -1.53112151E-31 -1.28119770E+00 -1.61526315E+00  9.54183661E-33 -1.28119770E+00
 -1.61526315E+00  9.54183661E-33 -1.28119770E+00 -1.61526315E+00  9.54183661E-33
 -1.28119770E+00 -1.61526315E+00  9.54183661E-33 -1.28119770E+00 -1.61526315E+00
  9.54183661E-33 -1.28119770E+00 -1.61526315E+00  9.54183661E-33 -1.28119770E+00
 -1.61526315E+00  9.54183661E-33 -1.28119770E+00 -1.61526315E+00  9.54183661E-33
 -6.78942299E-01  2.47486025E+00  1.72572495E+00 -6.78942299E-01  2.47486025E+00
  1.72572495E+00 -6.78942299E-01  2.47486025E+00  1.72572495E+00 -6.78942299E-01
  2.47486025E+00 -1.72572495E+00 -6.78942299E-01  2.47486025E+00 -1.72572495E+00
 -6.78942299E-01  2.47486025E+00 -1.72572495E+00
Num ILSW                                   I              100
ILSW                                       I   N=         100
           0           0           0           0           2           0
           0           0           0           0         402          -1
           5           0           0           0           2           0
           0           0           0           0           1           0
           1           0           0           0           0           0
           0           0      100000           0          -1           0
           0           0           0           0           0           0
           0           0           0           1           0           0
           0 -2000000000           1           0           0           0
           0           0           4          52           0           0
           0           0           5           0           0           0
           0           0           0           5           0           1
           0           0           0           0           0           0
           0           0           0           0           0           0
           0           0           0           0           0           0
           0           0           0           0           0           0
           0           0           0           0
Num RLSW                                   I               52
RLSW                                       R   N=          52
  8.00000000E-01  7.20000000E-01  1.00000000E+00  8.10000000E-01  2.00000000E-01
  0.00000000E+00  0.00000000E+00  1.00000000E+00  0.00000000E+00  0.00000000E+00
  0.00000000E+00  0.00000000E+00  1.00000000E+00  0.00000000E+00  0.00000000E+00
  0.00000000E+00  0.00000000E+00  1.00000000E+00  0.00000000E+00  0.00000000E+00
  0.00000000E+00  0.00000000E+00  1.00000000E+00  0.00000000E+00  0.00000000E+00
  0.00000000E+00  0.00000000E+00  1.00000000E+00  0.00000000E+00  0.00000000E+00
  0.00000000E+00  0.00000000E+00  1.00000000E+00  0.00000000E+00  0.00000000E+00
  0.00000000E+00  0.00000000E+00  0.00000000E+00  1.00000000E+00  1.00000000E+00
  0.00000000E+00  1.00000000E+00  0.00000000E+00  0.00000000E+00  0.00000000E+00
  0.00000000E+00  0.00000000E+00  0.00000000E+00  0.00000000E+00  0.00000000E+00
  0.00000000E+00  0.00000000E+00
MxBond                                     I                4
NBond                                      I   N=           5
           4           1           1           1           1
IBond                                      I   N=          20
           2           3           4           5           1           0
           0           0           1           0           0           0
           1           0           0           0           1           0
           0           0
RBond                                      R   N=          20
  1.00000000E+00  1.00000000E+00  1.00000000E+00  1.00000000E+00  1.00000000E+00
  0.00000000E+00  0.00000000E+00  0.00000000E+00  1.00000000E+00  0.00000000E+00
  0.00000000E+00  0.00000000E+00  1.00000000E+00  0.00000000E+00  0.00000000E+00
  0.00000000E+00  1.00000000E+00  0.00000000E+00  0.00000000E+00  0.00000000E+00
Virial Ratio                               R      2.002741068825050E+00
SCF Energy                                 R     -5.993620525223364E+02
Total Energy                               R     -5.993620525223364E+02
RMS Force                                  R      1.403245877698618E-06
RMS Density                                R      9.037682998062520E-10
NImag                                      I                0
Job Status                                 I                1
Nuclear derivative order                   I                2
Thermal Energy                             R     -5.993279796301060E+02
Thermal Enthalpy                           R     -5.993270354452924E+02
Thermal Free Energy                        R     -5.993570958825495E+02
External E-field                           R   N=          35
  0.00000000E+00  0.00000000E+00  0.00000000E+00  0.00000000E+00  0.00000000E+00
  0.00000000E+00  0.00000000E+00  0.00000000E+00  0.00000000E+00  0.00000000E+00
  0.00000000E+00  0.00000000E+00  0.00000000E+00  0.00000000E+00  0.00000000E+00
  0.00000000E+00  0.00000000E+00  0.00000000E+00  0.00000000E+00  0.00000000E+00
  0.00000000E+00  0.00000000E+00  0.00000000E+00  0.00000000E+00  0.00000000E+00
  0.00000000E+00  0.00000000E+00  0.00000000E+00  0.00000000E+00  0.00000000E+00
  0.00000000E+00  0.00000000E+00  0.00000000E+00  0.00000000E+00  0.00000000E+00
IOpCl                                      I                0
IROHF                                      I                0
Alpha Orbital Energies                     R   N=          56
 -1.01541848E+02 -2.47101908E+01 -1.03302960E+01 -9.46084649E+00 -7.22336869E+00
 -7.21380702E+00 -7.21320937E+00 -1.22937498E+00 -8.57974070E-01 -6.85944441E-01
 -5.27173214E-01 -5.26997069E-01 -4.87560990E-01 -3.82791412E-01 -3.74006067E-01
 -3.22095851E-01 -3.07505228E-01  1.64825234E-02  6.97278069E-02  1.01973592E-01
  1.09171197E-01  4.01687561E-01  4.34428702E-01  4.57267270E-01  4.92176947E-01
  5.52145419E-01  5.54868681E-01  5.63951646E-01  5.91115829E-01  6.84709213E-01
  7.14746548E-01  7.16589665E-01  7.38735989E-01  7.73441223E-01  9.17303655E-01
  1.05060909E+00  1.06544597E+00  1.15186763E+00  1.22744261E+00  1.26512768E+00
  1.34065237E+00  1.53320751E+00  1.62157702E+00  1.62803022E+00  1.67136520E+00
  1.77667187E+00  1.80728565E+00  1.99165171E+00  2.27262513E+00  2.35197994E+00
  2.42781222E+00  3.57321037E+00  3.57512742E+00  3.76659872E+00  3.81924731E+00
  4.01507472E+00
Alpha MO coefficients                      R   N=        3136
 -4.95672927E-06 -4.21561705E-05  1.61716765E-04  2.89874064E-06 -1.64327218E-07
  0.00000000E+00 -2.79945027E-05 -1.13204579E-04  0.00000000E+00 -1.18682616E-05
  0.00000000E+00  0.00000000E+00 -8.16825670E-06  1.10265467E-05  5.66019089E-07
  8.27642073E-06 -2.80197961E-05 -1.03052686E-06 -2.54185905E-06  0.00000000E+00
  1.20917432E-05  1.45646069E-05  0.00000000E+00 -7.11362773E-07  0.00000000E+00
  0.00000000E+00 -3.26175265E-07 -2.62023781E-07  1.00138105E+00 -4.93363111E-03
  3.45606552E-04 -3.12193954E-04  1.63211606E-05  4.27023763E-05  0.00000000E+00
 -4.98537741E-06 -1.20154944E-05  0.00000000E+00 -3.94087603E-05 -9.30037422E-05
  0.00000000E+00  1.18096568E-05  0.00000000E+00  0.00000000E+00  1.45811137E-05
 -1.53062451E-05 -9.82046700E-06  1.14406665E-05  3.23062122E-06  4.96663585E-06
 -5.13964371E-06 -9.82046700E-06  1.14406665E-05  3.23062122E-06  4.96663585E-06
  5.13964371E-06 -9.32399637E-05 -3.11981978E-04  5.15189413E-03  7.42165958E-04
  1.23761791E-04  0.00000000E+00  2.49415737E-03 -5.62261971E-04  0.00000000E+00
 -8.84827485E-05  0.00000000E+00  0.00000000E+00  3.25272006E-04  1.07140383E-06
  9.96617818E-01  2.07559389E-02 -1.02510549E-02 -1.10226537E-03  3.59629397E-05
  0.00000000E+00  2.56211707E-03 -2.98851272E-05  0.00000000E+00  8.26868847E-05
  0.00000000E+00  0.00000000E+00 -1.61078949E-04  9.61441524E-06  1.18024333E-05
  1.32618210E-04  3.36811311E-04 -1.15600550E-03  1.27638303E-05  2.87192400E-05
  0.00000000E+00 -3.15521226E-05 -1.34097105E-04  0.00000000E+00 -7.18277604E-04
 -3.97950466E-04  0.00000000E+00  6.68481092E-05  0.00000000E+00  0.00000000E+00
 -1.52303713E-05 -2.73262265E-04 -5.04473047E-04 -2.68085217E-04 -3.31782296E-04
  1.09534903E-04  2.37603047E-05 -5.04473047E-04 -2.68085217E-04 -3.31782296E-04
  1.09534903E-04 -2.37603047E-05  9.96461540E-01  2.87431209E-02 -1.41250121E-02
  5.04160798E-04  4.28294768E-04  0.00000000E+00  1.81217563E-03  1.37705500E-03
  0.00000000E+00  8.73871663E-04  0.00000000E+00  0.00000000E+00  7.11455503E-04
 -6.13517931E-04  3.85120028E-05  5.39194418E-04 -1.00171679E-03  2.72473037E-05
  5.60876264E-05  0.00000000E+00  1.83080397E-03 -2.96448999E-04  0.00000000E+00
  3.55082390E-04  0.00000000E+00  0.00000000E+00 -6.65651069E-04  8.66203922E-06
 -3.57714220E-05 -2.28944664E-04 -7.50045855E-04  3.56543607E-03  1.73534421E-05
  2.75596320E-05  0.00000000E+00  3.83618900E-05  1.65674524E-04  0.00000000E+00
  6.21702957E-04  1.61242689E-03  0.00000000E+00  9.13708892E-05  0.00000000E+00
  0.00000000E+00  1.40793710E-04 -1.93085810E-04 -1.48462209E-03  2.62436920E-03
 -7.35675104E-04  7.72960492E-04  1.35928119E-03 -1.48462209E-03  2.62436920E-03
 -7.35675104E-04  7.72960492E-04 -1.35928119E-03 -1.43966406E-04 -1.29243171E-03
  7.37319666E-03  8.87324946E-05  3.49412653E-04  0.00000000E+00 -1.04677853E-03
 -5.33547464E-03  0.00000000E+00  3.28730320E-04  0.00000000E+00  0.00000000E+00
  5.68505257E-04 -4.31841571E-04  3.06139364E-05  2.18622721E-04 -1.33612097E-03
  9.06791853E-05  8.02574395E-06  0.00000000E+00  4.93660280E-04  4.41309887E-04
  0.00000000E+00 -3.75874929E-05  0.00000000E+00  0.00000000E+00 -9.89927875E-05
 -5.58920365E-05 -2.77775313E-01  1.03651105E+00  5.30017957E-02 -2.54598214E-02
  2.00217428E-03  5.32642875E-03  0.00000000E+00  4.98209988E-04  1.30934843E-03
  0.00000000E+00 -2.29650489E-03 -5.41933298E-03  0.00000000E+00  2.09643374E-04
  0.00000000E+00  0.00000000E+00  2.65263604E-04 -3.31842595E-04 -9.36137842E-04
  1.21674321E-03  4.04382733E-05  2.20787374E-04 -1.18985309E-04 -9.36137842E-04
  1.21674321E-03  4.04382733E-05  2.20787374E-04  1.18985309E-04  1.69892059E-05
  4.45793280E-04 -6.99690466E-04 -2.44649324E-05  1.09414301E-04  0.00000000E+00
  2.45084236E-04  5.91204467E-04  0.00000000E+00  3.52620272E-04  0.00000000E+00
  0.00000000E+00  3.61529425E-04 -3.74398758E-04 -3.51659926E-06 -9.24738099E-05
  1.44093674E-04  4.69806289E-05  5.53285247E-05  0.00000000E+00 -1.01079274E-04
 -2.05784397E-04  0.00000000E+00 -4.34662823E-06  0.00000000E+00  0.00000000E+00
 -2.57278422E-05 -5.38721421E-06  1.65879485E-03 -6.31324456E-03 -2.57717951E-05
  6.81337213E-04  3.68560811E-01  9.26104760E-01  0.00000000E+00  3.70354395E-03
  9.27737973E-03  0.00000000E+00 -6.04433490E-04 -1.50288809E-03  0.00000000E+00
 -3.31441692E-04  0.00000000E+00  0.00000000E+00 -4.21431133E-04  3.87422480E-04
 -8.07349837E-05  1.83944949E-04 -6.31949992E-05 -6.21774039E-05  5.75191463E-05
 -8.07349837E-05  1.83944949E-04 -6.31949992E-05 -6.21774039E-05 -5.75191463E-05
 -3.57608113E-06 -1.97835979E-05  1.35831493E-04 -2.03125861E-05 -4.38503281E-07
  0.00000000E+00  2.72853112E-04  4.23772834E-05  0.00000000E+00  2.15916826E-05
  0.00000000E+00  0.00000000E+00  7.56010511E-05  6.12283626E-05  1.52664836E-06
  5.19595369E-07 -1.03589223E-04  9.02858505E-06  3.54976728E-05  0.00000000E+00
  1.46732211E-05 -1.50825785E-04  0.00000000E+00 -3.46511402E-06  0.00000000E+00
  0.00000000E+00 -7.59698314E-06  1.88299712E-05 -3.41732222E-05  1.13745893E-04
 -3.43263579E-05  9.31416894E-05  9.26456287E-01 -3.68704393E-01  0.00000000E+00
  8.16209984E-03 -3.24006207E-03  0.00000000E+00 -1.50075130E-03  6.40993534E-04
  0.00000000E+00  2.31884079E-06  0.00000000E+00  0.00000000E+00  1.86047594E-04
  2.24029760E-04  1.08714148E-05 -8.16439369E-05 -1.16523673E-05  4.28296657E-05
 -4.51165248E-06  1.08714148E-05 -8.16439369E-05 -1.16523673E-05  4.28296657E-05
  4.51165248E-06  0.00000000E+00  0.00000000E+00  0.00000000E+00  0.00000000E+00
  0.00000000E+00 -2.04970272E-05  0.00000000E+00  0.00000000E+00  1.10178193E-04
  0.00000000E+00  6.03170905E-05  6.54874632E-05  0.00000000E+00  0.00000000E+00
  0.00000000E+00  0.00000000E+00  0.00000000E+00  0.00000000E+00  0.00000000E+00
 -1.17482417E-06  0.00000000E+00  0.00000000E+00 -2.25890638E-05  0.00000000E+00
  6.78952809E-06 -6.46797604E-06  0.00000000E+00  0.00000000E+00  0.00000000E+00
  0.00000000E+00  0.00000000E+00  0.00000000E+00  0.00000000E+00  0.00000000E+00
  9.97144228E-01  0.00000000E+00  0.00000000E+00  8.72677968E-03  0.00000000E+00
  0.00000000E+00 -1.58904373E-03  0.00000000E+00  1.03752037E-04  2.84497312E-04
  0.00000000E+00  0.00000000E+00 -4.15003084E-05  1.59276324E-04 -3.68954168E-05
 -7.76249266E-05 -1.22844043E-05  4.15003084E-05 -1.59276324E-04  3.68954168E-05
  7.76249266E-05 -1.22844043E-05 -6.21463741E-02  1.23498321E-01  3.53168746E-02
  1.12939979E-01 -9.70359662E-03  0.00000000E+00  2.32232117E-02 -1.28775716E-03
  0.00000000E+00 -1.90792239E-02  0.00000000E+00  0.00000000E+00  2.50117694E-02
 -7.33697342E-04 -2.16729838E-01  4.63205749E-01  4.85366804E-01 -9.82785126E-02
  2.67001388E-03  0.00000000E+00 -3.37184196E-02  1.54936740E-03  0.00000000E+00
 -4.92853836E-03  0.00000000E+00  0.00000000E+00  8.13749024E-03 -2.66594322E-04
  2.89814819E-03 -1.22581281E-02  1.34605250E-02  2.31926862E-02 -4.20342293E-03
 -5.49634631E-03  0.00000000E+00  8.77846248E-03  1.18542612E-02  0.00000000E+00
  4.52973644E-03  8.34639461E-03  0.00000000E+00 -3.95523901E-03  0.00000000E+00
  0.00000000E+00 -2.46195828E-03  6.21116086E-03  2.63094440E-02  3.67884911E-03
  4.36181756E-03 -3.55184008E-03 -5.67303542E-03  2.63094440E-02  3.67884911E-03
  4.36181756E-03 -3.55184008E-03  5.67303542E-03 -8.85756323E-02  1.93098531E-01
  1.05612874E-01 -6.55569558E-02 -9.29979597E-02  0.00000000E+00 -2.62510766E-02
 -2.54175447E-02  0.00000000E+00 -9.30439762E-03  0.00000000E+00  0.00000000E+00
 -1.47880124E-02  1.07047268E-02  4.00595316E-02 -9.03505982E-02 -1.07054514E-01
 -5.08148711E-02 -1.79417907E-02  0.00000000E+00 -3.25495922E-02 -7.83972897E-03
  0.00000000E+00 -1.48543168E-03  0.00000000E+00  0.00000000E+00  2.47295795E-03
  1.46109630E-03  7.32767628E-02 -2.59151589E-01  4.36440411E-01  4.21717909E-01
 -1.51776986E-02 -4.23544919E-02  0.00000000E+00  3.45246395E-02  9.52313025E-02
  0.00000000E+00  8.12265141E-03  2.73576888E-02  0.00000000E+00 -1.50542373E-02
  0.00000000E+00  0.00000000E+00 -1.97772214E-02  1.70784126E-02  6.84465516E-02
  1.43403020E-03  2.27924318E-03 -6.24334086E-03 -8.26873762E-03  6.84465516E-02
  1.43403020E-03  2.27924318E-03 -6.24334086E-03  8.26873762E-03 -1.50012566E-01
  3.47870678E-01  2.01263452E-01 -2.03105297E-03  9.75786859E-02  0.00000000E+00
 -3.27147849E-02  3.58053507E-02  0.00000000E+00  1.11237009E-04  0.00000000E+00
  0.00000000E+00  6.48749990E-03  8.14801523E-04  6.10565196E-02 -1.37143903E-01
 -1.90047046E-01 -2.24736027E-01  4.41656214E-02  0.00000000E+00 -1.35037229E-01
  2.58663204E-02  0.00000000E+00 -4.34391783E-03  0.00000000E+00  0.00000000E+00
  8.04275066E-03 -2.86177390E-03 -4.11109911E-02  1.43835142E-01 -2.52539840E-01
 -2.76108489E-01 -1.13773778E-02 -3.95774645E-02  0.00000000E+00  2.56030725E-02
  8.79141838E-02  0.00000000E+00  1.55628386E-02  4.50121000E-02  0.00000000E+00
 -7.67940074E-03  0.00000000E+00  0.00000000E+00 -1.31256016E-02  8.83951764E-03
  1.88806853E-01  1.53301640E-02  7.58551847E-03 -7.15868265E-03 -1.82924076E-02
  1.88806853E-01  1.53301640E-02  7.58551847E-03 -7.15868265E-03  1.82924076E-02
  0.00000000E+00  0.00000000E+00  0.00000000E+00  0.00000000E+00  0.00000000E+00
  3.96030523E-01  0.00000000E+00  0.00000000E+00  1.58499382E-01  0.00000000E+00
  1.19954958E-02  1.72281452E-03  0.00000000E+00  0.00000000E+00  0.00000000E+00
  0.00000000E+00  0.00000000E+00  0.00000000E+00  0.00000000E+00  3.57212138E-01
  0.00000000E+00  0.00000000E+00  2.23579953E-01  0.00000000E+00 -1.31018347E-02
  7.13128357E-04  0.00000000E+00  0.00000000E+00  0.00000000E+00  0.00000000E+00
  0.00000000E+00  0.00000000E+00  0.00000000E+00  0.00000000E+00 -4.59213697E-02
  0.00000000E+00  0.00000000E+00  1.06196921E-01  0.00000000E+00  0.00000000E+00
  5.79735474E-02  0.00000000E+00  8.82669604E-03  2.28580554E-02  0.00000000E+00
  0.00000000E+00  2.21429101E-01  5.28572230E-02  5.87994843E-03 -8.99441599E-03
 -6.97076757E-03 -2.21429101E-01 -5.28572230E-02 -5.87994843E-03  8.99441599E-03
 -6.97076757E-03 -1.52249773E-02  1.42522858E-02  5.89742741E-02 -3.44612175E-01
  1.47132573E-01  0.00000000E+00 -6.43096066E-02  5.55367833E-02  0.00000000E+00
  2.16668001E-02  0.00000000E+00  0.00000000E+00 -2.09682965E-02  1.38706817E-02
 -4.15445742E-02  8.29478736E-02  1.65648257E-01  4.75520963E-01  1.31762097E-01
  0.00000000E+00  2.84219845E-01  8.33276454E-02  0.00000000E+00  6.55810277E-03
  0.00000000E+00  0.00000000E+00 -1.12358992E-02 -4.25689496E-03 -2.86196200E-03
  9.31261092E-03 -1.93000217E-02 -1.93823460E-02  3.23295809E-02 -2.39684213E-02
  0.00000000E+00 -7.59849238E-02  5.38948670E-02  0.00000000E+00 -4.61001906E-02
  3.50919140E-02  0.00000000E+00  4.92045805E-04  0.00000000E+00  0.00000000E+00
 -1.69252462E-02 -1.53155791E-02  1.41154692E-01  4.95138438E-02 -6.56424643E-03
 -1.33330962E-03 -1.17445144E-02  1.41154692E-01  4.95138438E-02 -6.56424643E-03
 -1.33330962E-03  1.17445144E-02  1.85283663E-02 -4.23590276E-02 -8.29325322E-02
  1.31063697E-01  2.77305670E-01  0.00000000E+00  4.45185108E-02  1.40713508E-01
  0.00000000E+00  3.28698712E-03  0.00000000E+00  0.00000000E+00  2.02338068E-02
  1.67040496E-02  9.23433760E-03 -1.77610503E-02 -3.94157184E-02 -1.42648782E-01
  4.22984224E-01  0.00000000E+00 -8.75213330E-02  2.67727109E-01  0.00000000E+00
 -1.82502188E-03  0.00000000E+00  0.00000000E+00  2.43663394E-03 -1.25833215E-02
  2.10790239E-02 -8.11418035E-02  1.21569630E-01  2.36645208E-01  6.52800736E-02
  1.21786372E-01  0.00000000E+00 -1.51312736E-01 -2.85091634E-01  0.00000000E+00
 -8.43637603E-02 -1.31152770E-01  0.00000000E+00  1.79016974E-02  0.00000000E+00
  0.00000000E+00  1.63335580E-02 -2.20175119E-02  2.93234548E-02  1.49935970E-02
  3.84842445E-03  4.22389477E-03 -3.31780509E-03  2.93234548E-02  1.49935970E-02
  3.84842445E-03  4.22389477E-03  3.31780509E-03  0.00000000E+00  0.00000000E+00
  0.00000000E+00  0.00000000E+00  0.00000000E+00 -2.23311177E-01  0.00000000E+00
  0.00000000E+00 -1.88630475E-02  0.00000000E+00  4.11212210E-02  2.30195270E-03
  0.00000000E+00  0.00000000E+00  0.00000000E+00  0.00000000E+00  0.00000000E+00
  0.00000000E+00  0.00000000E+00  5.57825753E-01  0.00000000E+00  0.00000000E+00
  3.84091521E-01  0.00000000E+00 -6.93612480E-03  7.83898719E-05  0.00000000E+00
  0.00000000E+00  0.00000000E+00  0.00000000E+00  0.00000000E+00  0.00000000E+00
  0.00000000E+00  0.00000000E+00  9.11177503E-02  0.00000000E+00  0.00000000E+00
 -2.15989623E-01  0.00000000E+00  0.00000000E+00 -1.56193258E-01  0.00000000E+00
 -3.77042126E-03 -2.27557446E-02  0.00000000E+00  0.00000000E+00 -1.93881704E-01
 -1.07001554E-01 -2.96457827E-03  6.82958201E-03  3.05221590E-03  1.93881704E-01
  1.07001554E-01  2.96457827E-03 -6.82958201E-03  3.05221590E-03  7.94521646E-03
 -1.00082665E-02  6.98854939E-03  7.09627015E-03 -2.48493209E-01  0.00000000E+00
  1.51314135E-02 -3.91828103E-02  0.00000000E+00 -1.62926889E-02  0.00000000E+00
  0.00000000E+00 -7.47840991E-03  3.98782500E-02  1.47016671E-04  3.12170300E-03
 -9.09550513E-03 -7.45276926E-03  4.84857492E-01  0.00000000E+00  1.44278714E-03
  3.38493654E-01  0.00000000E+00 -5.17493031E-04  0.00000000E+00  0.00000000E+00
 -4.28322731E-04 -5.58495559E-03 -4.53131901E-03  2.30124022E-02 -1.77542357E-02
 -6.73158282E-02 -4.91363764E-02 -1.61244079E-01  0.00000000E+00  1.21257321E-01
  3.87496838E-01  0.00000000E+00  5.45916458E-02  2.52591017E-01  0.00000000E+00
 -1.20775516E-02  0.00000000E+00  0.00000000E+00 -2.06002036E-02  1.65265633E-02
 -1.31467230E-01 -7.84302175E-02 -2.44848857E-03 -5.38928617E-03  8.62467754E-03
 -1.31467230E-01 -7.84302175E-02 -2.44848857E-03 -5.38928617E-03 -8.62467754E-03
 -9.85859082E-03  2.21135576E-02  3.08320624E-02 -1.28856982E-02  2.48649917E-02
  0.00000000E+00  4.91964922E-02  2.40519382E-02  0.00000000E+00  6.51791531E-03
  0.00000000E+00  0.00000000E+00 -2.57942053E-02 -1.11609863E-02  8.53511276E-03
 -1.89466229E-02 -4.94732764E-02  1.14017356E-01  1.00803551E-01  0.00000000E+00
  8.05476389E-02  6.83025299E-02  0.00000000E+00  4.57365704E-04  0.00000000E+00
  0.00000000E+00 -2.43975363E-03 -1.75081701E-03  5.05957441E-04 -1.09649506E-03
  4.30848730E-03  9.36020064E-03 -2.49208168E-01  9.58236028E-02  0.00000000E+00
  5.98864855E-01 -2.29547006E-01  0.00000000E+00  4.40684612E-01 -1.65680160E-01
  0.00000000E+00  1.63456207E-03  0.00000000E+00  0.00000000E+00  8.86139248E-03
  1.40975341E-02  3.87735207E-02  2.00322387E-02 -2.92354377E-04  3.52650981E-04
 -1.21716178E-03  3.87735207E-02  2.00322387E-02 -2.92354377E-04  3.52650981E-04
  1.21716178E-03  0.00000000E+00  0.00000000E+00  0.00000000E+00  0.00000000E+00
  0.00000000E+00 -1.71137085E-01  0.00000000E+00  0.00000000E+00 -2.02648805E-02
  0.00000000E+00  4.65878778E-03 -2.94834206E-02  0.00000000E+00  0.00000000E+00
  0.00000000E+00  0.00000000E+00  0.00000000E+00  0.00000000E+00  0.00000000E+00
  1.28065826E-01  0.00000000E+00  0.00000000E+00  9.01729821E-02  0.00000000E+00
  3.02830546E-04 -1.05531794E-03  0.00000000E+00  0.00000000E+00  0.00000000E+00
  0.00000000E+00  0.00000000E+00  0.00000000E+00  0.00000000E+00  0.00000000E+00
 -2.53440403E-01  0.00000000E+00  0.00000000E+00  6.09556231E-01  0.00000000E+00
  0.00000000E+00  4.63388089E-01  0.00000000E+00  2.96521969E-03  3.28881817E-03
  0.00000000E+00  0.00000000E+00 -1.64520059E-01 -1.02553575E-01 -3.00617630E-03
  2.61654119E-03  1.43969752E-03  1.64520059E-01  1.02553575E-01  3.00617630E-03
 -2.61654119E-03  1.43969752E-03 -1.12301590E-01  2.34349887E-01  1.28341488E+00
 -1.98355349E-01 -3.78140521E-01  0.00000000E+00 -3.60716327E-01 -4.49238311E-01
  0.00000000E+00  8.67618853E-03  0.00000000E+00  0.00000000E+00  9.42634629E-03
 -1.48174805E-03 -1.26173682E-03  4.10683582E-03  6.14046814E-03  5.47885557E-02
  1.19756725E-01  0.00000000E+00  6.21034836E-02  1.30884023E-01  0.00000000E+00
 -5.81298053E-04  0.00000000E+00  0.00000000E+00  3.20400330E-03  5.15828659E-03
 -1.92789517E-02  9.76579695E-02 -8.49146899E-02 -5.94773289E-01  5.15652268E-02
  1.43866123E-01  0.00000000E+00 -1.22584896E-01 -3.49656216E-01  0.00000000E+00
 -2.74601863E-01 -6.99767976E-01  0.00000000E+00 -5.72313481E-02  0.00000000E+00
  0.00000000E+00 -7.67796776E-02  6.28245483E-02 -4.61220760E-02 -4.93947136E-01
 -5.23876005E-03 -1.50991560E-02  3.98476308E-03 -4.61220760E-02 -4.93947136E-01
 -5.23876005E-03 -1.50991560E-02 -3.98476308E-03  4.91676423E-02 -4.42028669E-02
 -1.15181861E+00  1.27776657E-01 -4.08069869E-01  0.00000000E+00  3.74312960E-01
 -8.37745847E-01  0.00000000E+00  1.72378089E-02  0.00000000E+00  0.00000000E+00
 -1.34125415E-03 -7.46191722E-03  1.85282384E-02 -3.62416723E-02 -1.51330674E-01
  3.37318794E-02  9.79269295E-02  0.00000000E+00  3.80347850E-02  1.36561890E-01
  0.00000000E+00  3.43322916E-03  0.00000000E+00  0.00000000E+00 -6.83865639E-04
  6.23628793E-03 -1.62929972E-02  5.64170695E-02 -1.11775214E-01 -3.43489823E-01
  2.93521890E-02  5.34796327E-02  0.00000000E+00 -6.36794016E-02 -1.30073752E-01
  0.00000000E+00 -2.32886034E-01 -3.00954871E-01  0.00000000E+00 -7.41128423E-04
  0.00000000E+00  0.00000000E+00 -3.01818665E-03  4.39687312E-02  7.68584054E-02
  1.16147539E+00  2.74027744E-03 -1.16490759E-02  9.01544752E-03  7.68584054E-02
  1.16147539E+00  2.74027744E-03 -1.16490759E-02 -9.01544752E-03  0.00000000E+00
  0.00000000E+00  0.00000000E+00  0.00000000E+00  0.00000000E+00 -4.36313520E-01
  0.00000000E+00  0.00000000E+00 -1.19805629E+00  0.00000000E+00 -2.26544211E-03
  1.90216147E-02  0.00000000E+00  0.00000000E+00  0.00000000E+00  0.00000000E+00
  0.00000000E+00  0.00000000E+00  0.00000000E+00  7.94858649E-02  0.00000000E+00
  0.00000000E+00  1.40393203E-01  0.00000000E+00  7.09754693E-03  2.61336140E-03
  0.00000000E+00  0.00000000E+00  0.00000000E+00  0.00000000E+00  0.00000000E+00
  0.00000000E+00  0.00000000E+00  0.00000000E+00 -3.22506102E-03  0.00000000E+00
  0.00000000E+00 -2.74208201E-03  0.00000000E+00  0.00000000E+00  1.26159600E-01
  0.00000000E+00 -4.18617986E-02 -3.62936066E-02  0.00000000E+00  0.00000000E+00
  8.93521807E-02  1.61957653E+00 -8.38298647E-04  5.10839443E-03  8.47007018E-04
 -8.93521807E-02 -1.61957653E+00  8.38298647E-04 -5.10839443E-03  8.47007018E-04
 -8.32904809E-02  2.02431940E-01  7.76185385E-01  3.96630149E-01  1.57188783E-02
  0.00000000E+00  9.26864989E-01  1.22406127E-01  0.00000000E+00  2.46963359E-02
  0.00000000E+00  0.00000000E+00 -4.57378042E-02 -1.33921481E-04  7.84895121E-02
 -1.34013121E-01 -7.29419512E-01  3.46975758E-01 -3.50632438E-02  0.00000000E+00
  4.36270522E-01 -3.78691770E-02  0.00000000E+00 -9.92451702E-04  0.00000000E+00
  0.00000000E+00  2.00501837E-03 -1.08448349E-03  1.31321595E-03 -6.25097534E-03
  7.01134413E-03  1.18217732E-01  5.52953607E-02 -1.99526515E-02  0.00000000E+00
 -1.40540839E-01  5.66470553E-02  0.00000000E+00 -1.94509071E-01  1.24512609E-01
  0.00000000E+00 -1.86273217E-03  0.00000000E+00  0.00000000E+00  5.05694407E-02
  8.44223684E-02  1.87837420E-02 -2.43555828E-01  2.60364662E-02  7.91646634E-04
  8.22569798E-03  1.87837420E-02 -2.43555828E-01  2.60364662E-02  7.91646634E-04
 -8.22569798E-03 -3.41827263E-03  1.62621788E-01 -2.58289322E-01 -2.12150065E-01
 -6.29942013E-01  0.00000000E+00  2.63096658E-01  1.60037372E+00  0.00000000E+00
 -9.88437151E-02  0.00000000E+00  0.00000000E+00 -2.67398046E-02  8.65106826E-03
  3.34094463E-03 -4.48993389E-03 -5.87104916E-02 -3.39674275E-02 -1.06558245E-01
  0.00000000E+00 -4.26525713E-03 -2.05908561E-01  0.00000000E+00 -1.12454243E-03
  0.00000000E+00  0.00000000E+00 -6.65396226E-03  2.69931112E-03  1.41610521E-02
 -2.59215896E-02  1.41140759E-01  6.35993739E-01  2.20070039E-02  2.57170675E-02
  0.00000000E+00 -6.74743219E-02 -3.76213889E-02  0.00000000E+00  2.92778984E-01
  3.91715931E-01  0.00000000E+00 -1.72218773E-01  0.00000000E+00  0.00000000E+00
 -1.99308488E-01  1.40829826E-01 -3.34575583E-01 -2.88706484E-02 -1.57913807E-02
  1.39250255E-02 -1.91162575E-02 -3.34575583E-01 -2.88706484E-02 -1.57913807E-02
  1.39250255E-02  1.91162575E-02  0.00000000E+00  0.00000000E+00  0.00000000E+00
  0.00000000E+00  0.00000000E+00 -1.53401413E-01  0.00000000E+00  0.00000000E+00
  9.63007004E-01  0.00000000E+00  5.27884739E-02 -2.07436147E-01  0.00000000E+00
  0.00000000E+00  0.00000000E+00  0.00000000E+00  0.00000000E+00  0.00000000E+00
  0.00000000E+00 -1.63651578E-01  0.00000000E+00  0.00000000E+00 -1.40817496E-01
  0.00000000E+00 -5.76919061E-03 -3.80930178E-03  0.00000000E+00  0.00000000E+00
  0.00000000E+00  0.00000000E+00  0.00000000E+00  0.00000000E+00  0.00000000E+00
  0.00000000E+00  8.69549762E-02  0.00000000E+00  0.00000000E+00 -2.84683371E-01
  0.00000000E+00  0.00000000E+00 -7.01680669E-02  0.00000000E+00  1.52712834E-01
  3.04196299E-01  0.00000000E+00  0.00000000E+00 -6.25847050E-01  1.89158636E-01
  2.17818228E-02 -5.23859444E-02 -9.56370670E-03  6.25847050E-01 -1.89158636E-01
 -2.17818228E-02  5.23859444E-02 -9.56370670E-03  2.79128743E-02 -3.34934491E-01
  6.48124922E-02 -9.07597769E-01  1.12742972E-01  0.00000000E+00  1.33767307E+00
 -2.18330027E-01  0.00000000E+00 -4.38303750E-02  0.00000000E+00  0.00000000E+00
  1.40671701E-01  9.65791497E-03  9.47385569E-03  8.35346893E-02 -6.21802606E-01
 -3.36652249E-01  2.28419397E-02  0.00000000E+00  7.35720533E-02  1.86577444E-02
  0.00000000E+00  2.23848288E-02  0.00000000E+00  0.00000000E+00 -3.74688909E-02
  1.98729488E-03 -2.52255156E-03 -1.39812221E-02 -5.12133402E-02  1.72183096E-01
  5.98529973E-02  3.79377748E-03  0.00000000E+00 -2.14085266E-01 -1.93980790E-02
  0.00000000E+00 -1.04701646E-03  1.97036980E-01  0.00000000E+00  1.70155552E-02
  0.00000000E+00  0.00000000E+00  4.29899341E-02  4.55774329E-02  1.29032261E-01
  1.25042563E-01 -1.45184143E-02 -2.75288465E-02 -2.35086902E-02  1.29032261E-01
  1.25042563E-01 -1.45184143E-02 -2.75288465E-02  2.35086902E-02  2.40119452E-02
  1.17243722E-01 -7.25161765E-01  7.10278787E-02 -3.05128140E-01  0.00000000E+00
 -1.26130966E-02  6.96208802E-01  0.00000000E+00  1.67883033E-01  0.00000000E+00
  0.00000000E+00  4.01794928E-02 -1.19882081E-01 -1.13158128E-02  1.10774555E-02
  1.92071430E-01  2.75259413E-02  6.06415146E-02  0.00000000E+00 -9.43136532E-02
 -2.08308260E-02  0.00000000E+00 -3.80581375E-03  0.00000000E+00  0.00000000E+00
  5.99322378E-03  9.03909311E-03  3.59365739E-02 -2.53080500E-02  4.08574805E-01
  2.34075528E-01  8.27159175E-02  2.04719638E-01  0.00000000E+00 -3.26152512E-01
 -8.18457410E-01  0.00000000E+00  5.47660862E-01  1.33513090E+00  0.00000000E+00
  3.43612296E-02  0.00000000E+00  0.00000000E+00  7.14328067E-02 -4.25387827E-03
  3.40181563E-01 -3.83072922E-01 -2.62529569E-02 -1.73129763E-02  7.85052893E-02
  3.40181563E-01 -3.83072922E-01 -2.62529569E-02 -1.73129763E-02 -7.85052893E-02
  0.00000000E+00  0.00000000E+00  0.00000000E+00  0.00000000E+00  0.00000000E+00
 -4.83207094E-01  0.00000000E+00  0.00000000E+00  1.24186760E+00  0.00000000E+00
 -1.12861679E-01  2.88019134E-02  0.00000000E+00  0.00000000E+00  0.00000000E+00
  0.00000000E+00  0.00000000E+00  0.00000000E+00  0.00000000E+00 -2.56967749E-03
  0.00000000E+00  0.00000000E+00 -9.50041430E-02  0.00000000E+00  6.69975413E-03
  1.08825513E-03  0.00000000E+00  0.00000000E+00  0.00000000E+00  0.00000000E+00
  0.00000000E+00  0.00000000E+00  0.00000000E+00  0.00000000E+00 -2.36978725E-01
  0.00000000E+00  0.00000000E+00  9.48887014E-01  0.00000000E+00  0.00000000E+00
 -1.14220688E+00  0.00000000E+00  1.43447253E-01  2.32080175E-01  0.00000000E+00
  0.00000000E+00  8.82699669E-02 -7.43786309E-01 -2.18448135E-02  7.98082018E-02
  6.19843160E-02 -8.82699669E-02  7.43786309E-01  2.18448135E-02 -7.98082018E-02
  6.19843160E-02 -6.39862010E-02  3.93503114E-01 -7.40735421E-01 -6.06578535E-02
  2.77384026E-01  0.00000000E+00  3.13827091E-01 -1.38313045E-01  0.00000000E+00
 -1.01265491E-01  0.00000000E+00  0.00000000E+00  1.03854021E-01 -1.76405925E-03
  2.73872281E-02 -1.05249034E-01 -1.48509628E-01  7.03250432E-02 -2.01658107E-02
  0.00000000E+00  1.23830912E-01  1.08636228E-02  0.00000000E+00  4.09541985E-04
  0.00000000E+00  0.00000000E+00 -2.63949820E-03 -2.41257787E-03 -2.69254414E-02
 -5.98049472E-02 -4.21354902E-01  4.91196891E-01 -3.79364835E-02  1.76103792E-01
  0.00000000E+00  1.41485142E-01 -6.99770209E-01  0.00000000E+00 -1.13616436E-01
  7.98659079E-01  0.00000000E+00  8.01752207E-02  0.00000000E+00  0.00000000E+00
  7.30052724E-02 -1.44044082E-01 -5.84410369E-01  5.67814932E-01  1.22627706E-02
 -7.04826192E-02 -1.28723197E-01 -5.84410369E-01  5.67814932E-01  1.22627706E-02
 -7.04826192E-02  1.28723197E-01 -2.15643866E-02  8.83513719E-02 -1.16437272E-01
  1.42229789E-01  5.86606723E-02  0.00000000E+00 -3.29044640E-01  2.56281482E-02
  0.00000000E+00  8.54131291E-03  0.00000000E+00  0.00000000E+00  8.87166160E-02
  7.09926856E-02  1.18090558E-02 -7.95550454E-02  9.24347515E-02  6.96508141E-02
  6.80176428E-02  0.00000000E+00  5.91270100E-02 -2.31354622E-02  0.00000000E+00
 -3.89846428E-03  0.00000000E+00  0.00000000E+00  3.91264425E-04  1.66408090E-03
 -1.32368790E-02 -2.36312118E-02 -1.98998204E-01  1.65913636E-01  2.59993003E-01
 -5.30328836E-02  0.00000000E+00 -1.04513395E+00  2.10683618E-01  0.00000000E+00
  1.15848400E+00 -2.61407373E-01  0.00000000E+00  4.15310780E-02  0.00000000E+00
  0.00000000E+00 -1.65634013E-01 -2.81302409E-01 -1.76930634E-01  1.26126758E-01
  1.73668870E-02 -6.05298012E-03 -2.43973170E-02 -1.76930634E-01  1.26126758E-01
  1.73668870E-02 -6.05298012E-03  2.43973170E-02  0.00000000E+00  0.00000000E+00
  0.00000000E+00  0.00000000E+00  0.00000000E+00 -7.32942614E-01  0.00000000E+00
  0.00000000E+00  1.61495000E+00  0.00000000E+00 -1.37085996E-01  2.09270645E-01
  0.00000000E+00  0.00000000E+00  0.00000000E+00  0.00000000E+00  0.00000000E+00
  0.00000000E+00  0.00000000E+00 -2.21080477E-03  0.00000000E+00  0.00000000E+00
 -9.44975206E-02  0.00000000E+00  1.06315510E-02 -2.81061962E-03  0.00000000E+00
  0.00000000E+00  0.00000000E+00  0.00000000E+00  0.00000000E+00  0.00000000E+00
  0.00000000E+00  0.00000000E+00  1.59629462E-01  0.00000000E+00  0.00000000E+00
 -6.37853767E-01  0.00000000E+00  0.00000000E+00  5.24663975E-01  0.00000000E+00
  7.80873841E-02 -9.44678169E-02  0.00000000E+00  0.00000000E+00  2.75501333E-01
 -1.49985214E+00 -7.63630972E-02  6.14201287E-02  1.27344033E-01 -2.75501333E-01
  1.49985214E+00  7.63630972E-02 -6.14201287E-02  1.27344033E-01 -6.40480656E-03
 -1.07656702E-01  1.69754895E-01  5.09765115E-03 -1.06348007E-01  0.00000000E+00
 -3.69407077E-01  4.28109326E-01  0.00000000E+00 -8.31188422E-02  0.00000000E+00
  0.00000000E+00 -1.30106956E-01 -2.79213142E-01 -1.11781923E-02 -2.03999118E-03
  2.08414215E-01  5.22237558E-02  1.88389432E-01  0.00000000E+00 -1.31739079E-01
 -9.69483216E-02  0.00000000E+00 -7.24016810E-03  0.00000000E+00  0.00000000E+00
 -1.61507751E-03  1.20674451E-02 -3.60885299E-02 -8.90578396E-02 -5.78803155E-01
  7.58082204E-01  7.38364640E-02 -1.79727111E-02  0.00000000E+00 -2.88767369E-01
  6.35090567E-02  0.00000000E+00  3.75841588E-01  4.46088737E-02  0.00000000E+00
 -1.90693381E-01  0.00000000E+00  0.00000000E+00  6.80063994E-01  2.56407499E-01
 -8.27635301E-02 -2.12663444E-01 -7.62738828E-02  6.62530040E-02 -4.37629004E-02
 -8.27635301E-02 -2.12663444E-01 -7.62738828E-02  6.62530040E-02  4.37629004E-02
 -1.31091002E-02 -5.99766017E-01  1.51240375E+00  5.15793278E-02 -4.09169907E-01
  0.00000000E+00  1.81355472E-01  1.06870112E+00  0.00000000E+00  1.21785216E-01
  0.00000000E+00  0.00000000E+00  1.51297432E-01 -2.66060119E-02  1.86829444E-02
 -4.61912237E-02 -2.65737554E-01 -4.93162764E-02 -7.47721412E-02  0.00000000E+00
  1.85343466E-01 -5.66370672E-02  0.00000000E+00  5.58037555E-03  0.00000000E+00
  0.00000000E+00 -1.03933062E-02  5.01399505E-03 -6.63553312E-02 -1.79169529E-01
 -1.08720398E+00  1.57954928E+00 -6.01843024E-02  9.62444424E-03  0.00000000E+00
  2.38563968E-01 -4.68971694E-02  0.00000000E+00 -1.24815480E-01  3.44387963E-01
  0.00000000E+00 -7.28435405E-02  0.00000000E+00  0.00000000E+00  7.63705722E-02
 -5.63232495E-01  7.79309208E-02 -8.41913415E-01 -6.88960992E-03  4.02148993E-03
  9.68509065E-02  7.79309208E-02 -8.41913415E-01 -6.88960992E-03  4.02148993E-03
 -9.68509065E-02  0.00000000E+00  0.00000000E+00  0.00000000E+00  0.00000000E+00
  0.00000000E+00  7.30465639E-03  0.00000000E+00  0.00000000E+00 -3.02729264E-01
  0.00000000E+00 -2.39552205E-01 -7.93383833E-02  0.00000000E+00  0.00000000E+00
  0.00000000E+00  0.00000000E+00  0.00000000E+00  0.00000000E+00  0.00000000E+00
  1.87890478E-01  0.00000000E+00  0.00000000E+00 -1.70481539E-02  0.00000000E+00
  1.22024300E-02 -2.77795634E-03  0.00000000E+00  0.00000000E+00  0.00000000E+00
  0.00000000E+00  0.00000000E+00  0.00000000E+00  0.00000000E+00  0.00000000E+00
  3.87931837E-02  0.00000000E+00  0.00000000E+00 -1.54685256E-01  0.00000000E+00
  0.00000000E+00  2.03552834E-01  0.00000000E+00 -5.84477781E-01  6.55229539E-01
  0.00000000E+00  0.00000000E+00  1.51770412E-01 -4.84441124E-02 -9.59192033E-02
 -3.97000221E-02 -7.58304450E-03 -1.51770412E-01  4.84441124E-02  9.59192033E-02
  3.97000221E-02 -7.58304450E-03 -5.18416176E-03 -1.03599807E-01  2.95220487E-01
 -1.23149912E-02 -2.05033395E-01  0.00000000E+00 -1.28709525E-01  6.18455264E-01
  0.00000000E+00  7.21795680E-02  0.00000000E+00  0.00000000E+00 -4.04037034E-02
 -8.83393844E-02 -7.02078995E-03  2.43331640E-02  6.66321051E-02 -4.64559322E-03
 -2.58765243E-02  0.00000000E+00 -4.85958450E-02 -1.33883625E-02  0.00000000E+00
 -2.94928878E-03  0.00000000E+00  0.00000000E+00  4.99607577E-04  5.15686329E-03
 -3.59021383E-02 -1.02573733E-01 -5.96249063E-01  9.14011929E-01  9.09015930E-03
 -8.38058785E-03  0.00000000E+00 -3.64311116E-02  3.19278511E-02  0.00000000E+00
  1.53778784E-01  1.56193105E-01  0.00000000E+00  8.70705194E-01  0.00000000E+00
  0.00000000E+00 -9.78841580E-02  2.95881365E-01 -3.72295939E-02 -3.31113671E-01
 -3.62978612E-02  1.88101829E-02  4.44309214E-03 -3.72295939E-02 -3.31113671E-01
 -3.62978612E-02  1.88101829E-02 -4.44309214E-03  0.00000000E+00  0.00000000E+00
  0.00000000E+00  0.00000000E+00  0.00000000E+00 -1.89060556E-01  0.00000000E+00
  0.00000000E+00  1.09558150E+00  0.00000000E+00  1.89218756E-01  1.87305139E-01
  0.00000000E+00  0.00000000E+00  0.00000000E+00  0.00000000E+00  0.00000000E+00
  0.00000000E+00  0.00000000E+00 -2.77295973E-01  0.00000000E+00  0.00000000E+00
  2.24292039E-02  0.00000000E+00 -1.42399812E-02  3.65345762E-03  0.00000000E+00
  0.00000000E+00  0.00000000E+00  0.00000000E+00  0.00000000E+00  0.00000000E+00
  0.00000000E+00  0.00000000E+00 -4.01969122E-02  0.00000000E+00  0.00000000E+00
  1.67150501E-01  0.00000000E+00  0.00000000E+00 -3.21695874E-01  0.00000000E+00
 -7.52526984E-01 -2.65924407E-01  0.00000000E+00  0.00000000E+00 -2.49734364E-01
 -4.75137150E-01  1.19019937E-01  2.86119269E-02  6.14426108E-02  2.49734364E-01
  4.75137150E-01 -1.19019937E-01 -2.86119269E-02  6.14426108E-02 -4.12825039E-02
 -1.53400946E+00  3.53545819E+00  3.60090694E-01  2.75942669E-01  0.00000000E+00
 -3.42832177E-01 -9.13649086E-02  0.00000000E+00 -8.44627915E-02  0.00000000E+00
  0.00000000E+00  8.78316649E-02 -8.20252106E-02  4.30144189E-02 -1.92623232E-01
 -3.83088072E-01 -1.48014978E-01  1.08677817E-01  0.00000000E+00  4.93856030E-01
 -7.07654177E-02  0.00000000E+00  8.49747519E-03  0.00000000E+00  0.00000000E+00
 -1.92484705E-02  1.31931819E-04  3.87774445E-03  5.67523744E-02  1.25657784E-01
 -7.26804684E-01  1.48747686E-02  6.96600746E-02  0.00000000E+00 -7.64908215E-02
 -3.32712493E-01  0.00000000E+00 -8.59852810E-02 -5.69817220E-02  0.00000000E+00
 -1.20993441E-01  0.00000000E+00  0.00000000E+00 -2.97081052E-01  2.64056906E-01
 -2.43046433E-01 -8.08600622E-01 -1.08002240E-01  6.35476465E-02  4.41537318E-02
 -2.43046433E-01 -8.08600622E-01 -1.08002240E-01  6.35476465E-02 -4.41537318E-02
  2.52776601E-02 -3.82166859E-01 -6.94141657E-01 -3.06085333E-01  1.90525492E-01
  0.00000000E+00 -3.44201364E-01  4.55736831E-01  0.00000000E+00  2.83324211E-01
  0.00000000E+00  0.00000000E+00 -3.69767657E-01  2.06370816E-01 -6.11585365E-02
  2.53282458E-01  4.42832621E-01  4.39691134E-01 -8.76876258E-02  0.00000000E+00
 -1.09986309E+00  4.13363420E-03  0.00000000E+00  8.07392487E-03  0.00000000E+00
  0.00000000E+00 -2.42941977E-02 -1.47247797E-02 -4.80770686E-02 -1.54163926E-01
 -8.28670706E-01  1.23097464E+00  3.09124594E-02  6.18129054E-02  0.00000000E+00
 -1.47163563E-01 -2.94740786E-01  0.00000000E+00  3.75259992E-01  6.40076896E-01
  0.00000000E+00 -2.14288230E-01  0.00000000E+00  0.00000000E+00 -1.64613458E-01
  2.68319692E-01 -5.46060985E-02 -1.26281712E-01  1.19940940E-01 -2.46954158E-02
  7.72381834E-02 -5.46060985E-02 -1.26281712E-01  1.19940940E-01 -2.46954158E-02
 -7.72381834E-02  0.00000000E+00  0.00000000E+00  0.00000000E+00  0.00000000E+00
  0.00000000E+00 -7.39755708E-02  0.00000000E+00  0.00000000E+00  5.97571451E-01
  0.00000000E+00 -3.26534040E-01 -3.19555723E-01  0.00000000E+00  0.00000000E+00
  0.00000000E+00  0.00000000E+00  0.00000000E+00  0.00000000E+00  0.00000000E+00
  1.01183528E-01  0.00000000E+00  0.00000000E+00 -1.02751690E-01  0.00000000E+00
  1.52999527E-02 -1.09602876E-02  0.00000000E+00  0.00000000E+00  0.00000000E+00
  0.00000000E+00  0.00000000E+00  0.00000000E+00  0.00000000E+00  0.00000000E+00
 -3.92218246E-02  0.00000000E+00  0.00000000E+00  2.01974606E-01  0.00000000E+00
  0.00000000E+00 -4.50884616E-01  0.00000000E+00 -1.78505155E-01 -5.75020808E-01
  0.00000000E+00  0.00000000E+00 -1.31324831E-01 -1.67013542E-01 -2.44122224E-01
 -2.82769164E-01  7.24709121E-02  1.31324831E-01  1.67013542E-01  2.44122224E-01
  2.82769164E-01  7.24709121E-02 -4.68577932E-02 -4.55255279E-01  1.63176948E+00
  1.24438108E-01 -3.16162999E-02  0.00000000E+00 -5.82487380E-01  4.49484496E-02
  0.00000000E+00  1.83226507E-01  0.00000000E+00  0.00000000E+00  2.47098205E-01
  2.15894095E-01  9.24816681E-03 -4.85413516E-02 -4.66924215E-02 -3.29639633E-02
 -5.74667348E-01  0.00000000E+00  1.92984970E-01  5.75613612E-01  0.00000000E+00
  6.49935195E-03  0.00000000E+00  0.00000000E+00  3.02811301E-03 -1.40888552E-02
  2.32852748E-02  9.32897480E-02  4.26742255E-01 -8.25508834E-01  2.33359308E-02
 -3.03644969E-02  0.00000000E+00 -1.30743677E-01  1.49021502E-01  0.00000000E+00
  2.17437188E-01 -5.74646293E-01  0.00000000E+00  2.26978390E-02  0.00000000E+00
  0.00000000E+00  4.46158261E-01  2.39591484E-01 -3.32052434E-01 -2.52268224E-01
 -1.36912913E-02 -2.13437583E-01  9.82023670E-02 -3.32052434E-01 -2.52268224E-01
 -1.36912913E-02 -2.13437583E-01 -9.82023670E-02 -9.82745034E-02 -9.78568148E-01
  2.65073614E+00 -3.05222461E-01 -1.02873829E-01  0.00000000E+00 -4.00553690E-01
 -6.52468309E-01  0.00000000E+00  1.81475646E-01  0.00000000E+00  0.00000000E+00
 -1.92209784E-01 -2.45119829E-01 -4.90529653E-03 -3.68531681E-03 -7.35049499E-02
  4.13709724E-01  1.32691389E-01  0.00000000E+00 -6.45235318E-01 -1.09391402E-02
  0.00000000E+00  3.33706764E-02  0.00000000E+00  0.00000000E+00 -3.08132081E-02
  2.22697924E-02  7.06626549E-02  2.93036264E-01  1.31306658E+00 -2.41084475E+00
 -2.04146674E-02 -3.95255549E-02  0.00000000E+00  1.25497164E-01  2.18660190E-01
  0.00000000E+00 -5.70865412E-01 -1.16092652E+00  0.00000000E+00  2.65099436E-01
  0.00000000E+00  0.00000000E+00  1.85084287E-01 -4.26742853E-01 -4.88324318E-01
 -1.55783979E-01 -3.73986965E-03  2.29098330E-02 -2.38629486E-02 -4.88324318E-01
 -1.55783979E-01 -3.73986965E-03  2.29098330E-02  2.38629486E-02  0.00000000E+00
  0.00000000E+00  0.00000000E+00  0.00000000E+00  0.00000000E+00  7.05338144E-02
  0.00000000E+00  0.00000000E+00 -4.47470669E-01  0.00000000E+00 -3.89861043E-01
  8.32718114E-02  0.00000000E+00  0.00000000E+00  0.00000000E+00  0.00000000E+00
  0.00000000E+00  0.00000000E+00  0.00000000E+00 -7.58898703E-01  0.00000000E+00
  0.00000000E+00  1.10864586E+00  0.00000000E+00  4.56226617E-02  6.32227347E-04
  0.00000000E+00  0.00000000E+00  0.00000000E+00  0.00000000E+00  0.00000000E+00
  0.00000000E+00  0.00000000E+00  0.00000000E+00  1.82037553E-03  0.00000000E+00
  0.00000000E+00 -1.00431828E-02  0.00000000E+00  0.00000000E+00  7.13022353E-02
  0.00000000E+00  4.69515336E-02  3.15627732E-02  0.00000000E+00  0.00000000E+00
 -8.33693459E-02  2.15298051E-01 -1.68090694E-01  1.05635557E-01 -1.81800203E-01
  8.33693459E-02 -2.15298051E-01  1.68090694E-01 -1.05635557E-01 -1.81800203E-01
  2.31306065E-02  1.23912077E-01 -7.85390988E-01 -4.51454307E-02  1.18612541E-01
  0.00000000E+00  2.88910498E-01 -7.35695528E-01  0.00000000E+00 -1.27946402E-01
  0.00000000E+00  0.00000000E+00 -2.19783010E-01 -6.23513440E-01 -2.16588294E-03
 -9.41494067E-03  4.22374771E-02  5.22992310E-02 -6.34768057E-01  0.00000000E+00
 -1.54528943E-01  1.12450116E+00  0.00000000E+00 -1.73056770E-03  0.00000000E+00
  0.00000000E+00 -5.04717612E-03  7.67008900E-02 -7.09270233E-03 -2.95688506E-02
 -1.32838377E-01  4.88568430E-02  2.50741774E-02 -1.94372075E-03  0.00000000E+00
 -9.45055795E-02 -3.02388079E-02  0.00000000E+00 -3.80191461E-02  1.53636525E-01
  0.00000000E+00 -1.04653034E-01  0.00000000E+00  0.00000000E+00 -3.14730499E-01
 -1.32463252E-01  1.71364930E-01  2.51242313E-01 -9.18489586E-02  7.98247805E-02
 -6.66235704E-02  1.71364930E-01  2.51242313E-01 -9.18489586E-02  7.98247805E-02
  6.66235704E-02  0.00000000E+00  0.00000000E+00  0.00000000E+00  0.00000000E+00
  0.00000000E+00 -1.05694626E-01  0.00000000E+00  0.00000000E+00  1.47372912E+00
  0.00000000E+00  2.28371232E-01 -9.32012244E-02  0.00000000E+00  0.00000000E+00
  0.00000000E+00  0.00000000E+00  0.00000000E+00  0.00000000E+00  0.00000000E+00
  3.19034815E-01  0.00000000E+00  0.00000000E+00 -7.28122503E-01  0.00000000E+00
 -5.83607030E-02 -8.15204006E-03  0.00000000E+00  0.00000000E+00  0.00000000E+00
  0.00000000E+00  0.00000000E+00  0.00000000E+00  0.00000000E+00  0.00000000E+00
  1.17547011E-03  0.00000000E+00  0.00000000E+00  1.92068570E-02  0.00000000E+00
  0.00000000E+00 -2.95594642E-01  0.00000000E+00 -1.39102357E-01 -2.25651951E-01
  0.00000000E+00  0.00000000E+00 -2.73979309E-01 -5.35629503E-01 -3.68377578E-01
  4.11736281E-01 -4.66799822E-01  2.73979309E-01  5.35629503E-01  3.68377578E-01
 -4.11736281E-01 -4.66799822E-01  1.78205756E-02 -6.45295289E-02 -9.86435408E-02
  8.46132738E-02 -2.37693877E-02  0.00000000E+00 -5.78329917E-01  5.71472539E-01
  0.00000000E+00  6.29931157E-01  0.00000000E+00  0.00000000E+00 -8.70385703E-02
 -5.59029362E-01 -2.39739896E-02  1.08607729E-01  3.19694673E-01 -4.30542611E-01
  9.20112873E-02  0.00000000E+00  3.25681374E-01 -2.75756840E-02  0.00000000E+00
  9.28650868E-03  0.00000000E+00  0.00000000E+00  2.60876364E-02  5.08805627E-02
 -3.99782527E-03 -7.35302706E-02 -1.53748133E-01  5.21500267E-01 -6.13761165E-03
 -4.54034459E-02  0.00000000E+00  1.33213232E-02  1.65496944E-01  0.00000000E+00
  2.46861970E-01  1.78307326E-01  0.00000000E+00 -1.77606787E-01  0.00000000E+00
  0.00000000E+00 -1.67397456E-01  1.76421973E-01 -4.14668150E-01 -1.63560078E-02
  4.21549546E-01 -5.83759240E-02 -7.85934445E-02 -4.14668150E-01 -1.63560078E-02
  4.21549546E-01 -5.83759240E-02  7.85934445E-02  0.00000000E+00  0.00000000E+00
  0.00000000E+00  0.00000000E+00  0.00000000E+00 -2.03547503E-01  0.00000000E+00
  0.00000000E+00  9.12100045E-01  0.00000000E+00 -5.81687743E-01  7.27744495E-01
  0.00000000E+00  0.00000000E+00  0.00000000E+00  0.00000000E+00  0.00000000E+00
  0.00000000E+00  0.00000000E+00  2.56646777E-01  0.00000000E+00  0.00000000E+00
 -3.21093438E-01  0.00000000E+00  4.81472012E-02  3.17766385E-02  0.00000000E+00
  0.00000000E+00  0.00000000E+00  0.00000000E+00  0.00000000E+00  0.00000000E+00
  0.00000000E+00  0.00000000E+00 -1.55159012E-02  0.00000000E+00  0.00000000E+00
  6.83470350E-02  0.00000000E+00  0.00000000E+00 -2.11748869E-01  0.00000000E+00
  5.39638602E-02 -4.53749828E-02  0.00000000E+00  0.00000000E+00 -7.00439966E-01
  7.14234314E-03  2.22618630E-01 -2.02566571E-01 -1.94722373E-01  7.00439966E-01
 -7.14234314E-03 -2.22618630E-01  2.02566571E-01 -1.94722373E-01  5.71645771E-02
  4.20207825E-01 -1.83946463E+00  9.74047235E-02  7.39321251E-02  0.00000000E+00
  9.87436520E-01  1.46994814E+00  0.00000000E+00  3.34378622E-01  0.00000000E+00
  0.00000000E+00  5.94841330E-01 -3.90513321E-01  1.09268686E-02  5.95448834E-02
 -3.44667280E-01  3.15913595E-01  1.88678995E-01  0.00000000E+00 -2.35672287E-01
 -3.95665976E-01  0.00000000E+00  8.88965612E-03  0.00000000E+00  0.00000000E+00
  9.18212457E-03  4.15267088E-03 -2.52755137E-02 -2.55392100E-01 -6.80591447E-01
  2.24764567E+00 -4.50087023E-02 -9.65026159E-02  0.00000000E+00  1.82293208E-01
  3.65849556E-01  0.00000000E+00  2.70062716E-01  9.68272135E-01  0.00000000E+00
 -3.04200808E-01  0.00000000E+00  0.00000000E+00 -4.32006985E-01  3.37746570E-01
  5.08447631E-02  6.83035171E-02 -3.67706792E-01 -3.23549457E-01 -7.58689544E-02
  5.08447631E-02  6.83035171E-02 -3.67706792E-01 -3.23549457E-01  7.58689544E-02
 -1.90808638E-02 -5.85178802E-02  5.36167601E-01  4.10426150E-02  1.13712509E-02
  0.00000000E+00  1.61942788E-01 -2.94786400E-01  0.00000000E+00 -2.58193160E-01
  0.00000000E+00  0.00000000E+00  1.05356395E+00 -2.27091482E-01  1.70239800E-02
  2.85775826E-01 -9.28647547E-01  3.46950644E-01 -6.21841790E-02  0.00000000E+00
  1.88632623E-01  1.80516021E-01  0.00000000E+00  3.79423748E-04  0.00000000E+00
  0.00000000E+00  3.73463287E-02  3.28277052E-02  3.70884359E-03 -9.92748584E-03
  3.51264601E-02 -8.93612301E-02 -1.84971130E-02 -1.60401238E-02  0.00000000E+00
  5.46287079E-02  5.55802432E-02  0.00000000E+00  5.90683748E-03  3.68452886E-03
  0.00000000E+00 -5.00436304E-02  0.00000000E+00  0.00000000E+00 -2.98726652E-02
  2.25623170E-01  5.74806781E-02 -5.20039601E-02  4.53302695E-01  4.03502703E-01
  5.58341336E-02  5.74806781E-02 -5.20039601E-02  4.53302695E-01  4.03502703E-01
 -5.58341336E-02  0.00000000E+00  0.00000000E+00  0.00000000E+00  0.00000000E+00
  0.00000000E+00 -3.50620582E-02  0.00000000E+00  0.00000000E+00 -2.78598322E-02
  0.00000000E+00  7.86124376E-01  6.85700466E-01  0.00000000E+00  0.00000000E+00
  0.00000000E+00  0.00000000E+00  0.00000000E+00  0.00000000E+00  0.00000000E+00
 -6.56408072E-02  0.00000000E+00  0.00000000E+00 -1.35781779E-01  0.00000000E+00
 -1.01633916E-01  3.26394605E-02  0.00000000E+00  0.00000000E+00  0.00000000E+00
  0.00000000E+00  0.00000000E+00  0.00000000E+00  0.00000000E+00  0.00000000E+00
 -2.90340285E-02  0.00000000E+00  0.00000000E+00  9.30079075E-02  0.00000000E+00
  0.00000000E+00  3.49344745E-02  0.00000000E+00  9.52135803E-02  2.59232957E-01
  0.00000000E+00  0.00000000E+00 -2.43093651E-02  3.64857281E-02 -5.50208221E-01
 -4.80202363E-01 -4.00040799E-03  2.43093651E-02 -3.64857281E-02  5.50208221E-01
  4.80202363E-01 -4.00040799E-03  1.73985957E-02  8.18291490E-03 -6.79692775E-01
 -2.76998370E-02 -1.29713738E-01  0.00000000E+00 -8.20517930E-02 -5.08962480E-01
  0.00000000E+00  8.93489265E-01  0.00000000E+00  0.00000000E+00  1.16873756E-01
  4.68382094E-01  1.87790063E-03 -4.06384991E-01  7.38264133E-01 -2.53469036E-02
 -1.01283122E-01  0.00000000E+00 -2.78336938E-01  1.11077002E-01  0.00000000E+00
  6.25473404E-02  0.00000000E+00  0.00000000E+00 -1.13581617E-02 -4.87834619E-02
  3.07698130E-03  8.68472570E-03  5.25679742E-02 -1.76272485E-01 -1.19384057E-02
  5.70046726E-04  0.00000000E+00  3.93735489E-02 -4.58575097E-03  0.00000000E+00
 -1.30179747E-02 -2.71826862E-02  0.00000000E+00 -7.23958651E-02  0.00000000E+00
  0.00000000E+00  3.82179990E-02  8.34377732E-02 -2.78537724E-03  2.43181207E-01
 -2.72979828E-01  5.97402696E-01 -5.25500582E-01 -2.78537724E-03  2.43181207E-01
 -2.72979828E-01  5.97402696E-01  5.25500582E-01  2.86859104E-02  9.28354599E-01
 -9.08120573E-01 -6.28922318E-01  4.75372876E-01  0.00000000E+00 -9.30261268E-01
  7.84867225E-01  0.00000000E+00  6.05829479E-01  0.00000000E+00  0.00000000E+00
 -1.78417149E-01 -3.79465978E-01  8.42991670E-03 -1.33620101E+00  2.35785211E+00
  3.72641185E-02  3.53578878E-02  0.00000000E+00 -6.85895044E-01 -5.29327538E-02
  0.00000000E+00  5.31197448E-02  0.00000000E+00  0.00000000E+00 -6.31238364E-02
  3.58471262E-02 -1.06845064E-02 -1.03244443E-01 -2.79919459E-01  8.55315152E-01
 -1.22514290E-02 -2.98528436E-02  0.00000000E+00  4.18875438E-02  1.19871973E-01
  0.00000000E+00  3.28306765E-01  3.07136291E-01  0.00000000E+00 -8.80890325E-02
  0.00000000E+00  0.00000000E+00 -6.74206887E-02  1.81995530E-01 -5.59825197E-01
 -2.90576782E-01 -5.54410141E-02  2.75096587E-01  7.31655809E-01 -5.59825197E-01
 -2.90576782E-01 -5.54410141E-02  2.75096587E-01 -7.31655809E-01  0.00000000E+00
  0.00000000E+00  0.00000000E+00  0.00000000E+00  0.00000000E+00  1.31021521E+00
  0.00000000E+00  0.00000000E+00  1.36260664E+00  0.00000000E+00 -7.50385438E-01
  1.09999431E+00  0.00000000E+00  0.00000000E+00  0.00000000E+00  0.00000000E+00
  0.00000000E+00  0.00000000E+00  0.00000000E+00  7.97998342E-02  0.00000000E+00
  0.00000000E+00 -1.69585426E-01  0.00000000E+00  4.25089178E-02  6.00893732E-02
  0.00000000E+00  0.00000000E+00  0.00000000E+00  0.00000000E+00  0.00000000E+00
  0.00000000E+00  0.00000000E+00  0.00000000E+00  5.70863929E-04  0.00000000E+00
  0.00000000E+00 -6.11758560E-03  0.00000000E+00  0.00000000E+00 -1.17616214E-01
  0.00000000E+00  6.41308047E-03 -2.97479663E-02  0.00000000E+00  0.00000000E+00
 -1.28150059E+00 -7.84810054E-01 -4.04932073E-01  5.24543932E-01  9.67847325E-01
  1.28150059E+00  7.84810054E-01  4.04932073E-01 -5.24543932E-01  9.67847325E-01
 -6.86362304E-02  5.98539050E-01  2.37975212E+00 -1.29822589E-01  5.35515323E-01
  0.00000000E+00  3.88787710E-01  2.00529866E-01  0.00000000E+00  7.36823776E-01
  0.00000000E+00  0.00000000E+00 -9.40539185E-03 -1.86431452E-01 -1.21831958E-02
  1.20453181E+00 -1.87235938E+00 -2.19974581E-01  8.28399468E-03  0.00000000E+00
  6.52757123E-01 -3.31813590E-02  0.00000000E+00 -7.87121695E-03  0.00000000E+00
  0.00000000E+00  1.10051507E-01 -7.34069310E-03  5.08304350E-03  2.57094907E-02
  1.03457514E-01 -2.55807998E-01 -3.04634860E-03 -1.46861705E-03  0.00000000E+00
  2.40735842E-02  5.85055619E-03  0.00000000E+00 -1.72633054E-01 -9.39092405E-02
  0.00000000E+00 -2.49719124E-02  0.00000000E+00  0.00000000E+00 -3.38253260E-02
 -6.56323832E-02 -9.10292636E-01 -4.59104343E-01 -5.02890356E-01  4.83426631E-01
  6.07306533E-01 -9.10292636E-01 -4.59104343E-01 -5.02890356E-01  4.83426631E-01
 -6.07306533E-01  0.00000000E+00  0.00000000E+00  0.00000000E+00  0.00000000E+00
  0.00000000E+00 -1.08708842E-01  0.00000000E+00  0.00000000E+00 -1.17045024E-01
  0.00000000E+00  4.71160169E-02 -1.98429292E-01  0.00000000E+00  0.00000000E+00
  0.00000000E+00  0.00000000E+00  0.00000000E+00  0.00000000E+00  0.00000000E+00
 -7.49054272E-03  0.00000000E+00  0.00000000E+00  2.26190931E-02  0.00000000E+00
  6.22920698E-03  9.98503733E-01  0.00000000E+00  0.00000000E+00  0.00000000E+00
  0.00000000E+00  0.00000000E+00  0.00000000E+00  0.00000000E+00  0.00000000E+00
  3.86282046E-03  0.00000000E+00  0.00000000E+00 -1.39071438E-02  0.00000000E+00
  0.00000000E+00  1.72799065E-02  0.00000000E+00 -1.06960915E-02 -1.72087625E-02
  0.00000000E+00  0.00000000E+00  1.48000866E-01  3.10496784E-02  4.34312865E-02
 -9.12712599E-03 -8.06075581E-02 -1.48000866E-01 -3.10496784E-02 -4.34312865E-02
  9.12712599E-03 -8.06075581E-02  4.72992391E-03 -4.45915544E-02 -1.57285754E-01
  1.96207073E-02 -3.72325565E-02  0.00000000E+00 -2.94995051E-03  2.53125267E-02
  0.00000000E+00 -1.71408220E-01  0.00000000E+00  0.00000000E+00 -6.01171356E-02
  1.05236284E-02 -3.36282567E-04 -3.65717833E-02  6.44050385E-02  9.21640827E-03
  9.47298795E-04  0.00000000E+00 -2.29492958E-02 -2.50605547E-03  0.00000000E+00
  8.62920899E-01  0.00000000E+00  0.00000000E+00  5.01472361E-01 -2.77354240E-02
 -3.11178325E-03 -7.59415428E-03 -5.13284664E-02  7.57310695E-02  6.92679306E-03
  7.05175396E-03  0.00000000E+00 -3.06263605E-02 -3.17949226E-02  0.00000000E+00
  3.83790962E-02  4.07928591E-02  0.00000000E+00  1.34398336E-02  0.00000000E+00
  0.00000000E+00  6.74370981E-03 -1.38701639E-02  9.74710251E-02  7.47200593E-03
  3.68633806E-02 -8.58695437E-02 -1.42497153E-02  9.74710251E-02  7.47200593E-03
  3.68633806E-02 -8.58695437E-02  1.42497153E-02 -1.28412486E-03 -2.92216538E-02
  1.34194094E-03  4.94915793E-02  1.15570684E-02  0.00000000E+00  5.90147715E-02
  1.11331160E-01  0.00000000E+00  1.46892049E-02  0.00000000E+00  0.00000000E+00
  1.50974562E-02  3.95753722E-01  6.54252954E-04  2.78678412E-02 -5.90006413E-02
 -3.03983257E-04  5.77416256E-02  0.00000000E+00  9.73460790E-03 -2.11390790E-01
  0.00000000E+00  1.71996768E-02  0.00000000E+00  0.00000000E+00  2.86065792E-02
  1.01891033E+00 -9.77418799E-04  3.24617739E-03 -8.97224735E-03  2.79313557E-02
 -5.02876332E-03  7.90891784E-03  0.00000000E+00  1.61354346E-02 -2.77948148E-02
  0.00000000E+00  1.99330383E-03 -6.81142648E-03  0.00000000E+00  1.95833883E-02
  0.00000000E+00  0.00000000E+00  7.07781963E-02  1.57628902E-02  5.16585410E-02
 -9.79326473E-03 -7.83276850E-02 -8.13561763E-03 -7.28805503E-02  5.16585410E-02
 -9.79326473E-03 -7.83276850E-02 -8.13561763E-03  7.28805503E-02  0.00000000E+00
  0.00000000E+00  0.00000000E+00  0.00000000E+00  0.00000000E+00 -5.76741426E-02
  0.00000000E+00  0.00000000E+00  1.81528180E-01  0.00000000E+00  4.91203361E-01
 -3.02234295E-02  0.00000000E+00  0.00000000E+00  0.00000000E+00  0.00000000E+00
  0.00000000E+00  0.00000000E+00  0.00000000E+00  5.72052906E-02  0.00000000E+00
  0.00000000E+00 -2.39667031E-01  0.00000000E+00  1.02050951E+00 -7.96317250E-03
  0.00000000E+00  0.00000000E+00  0.00000000E+00  0.00000000E+00  0.00000000E+00
  0.00000000E+00  0.00000000E+00  0.00000000E+00 -4.28228436E-03  0.00000000E+00
  0.00000000E+00  1.74284664E-02  0.00000000E+00  0.00000000E+00 -3.21280843E-02
  0.00000000E+00 -1.38307214E-02  1.72716764E-02  0.00000000E+00  0.00000000E+00
  1.09039026E-01 -7.98566661E-02 -1.28428003E-01 -7.20221303E-02 -1.11486480E-01
 -1.09039026E-01  7.98566661E-02  1.28428003E-01  7.20221303E-02 -1.11486480E-01
  3.37358863E-02 -2.85244439E-01 -3.92154316E-01 -4.87692020E-01  2.42768719E-02
  0.00000000E+00 -3.04542236E-01  2.08462554E-02  0.00000000E+00  2.65483636E-01
  0.00000000E+00  0.00000000E+00 -4.07878726E-01  4.32401885E-02 -1.85023037E-02
 -4.79608785E-01  1.10603241E+00  2.95346562E-02 -2.34779979E-04  0.00000000E+00
 -6.29590011E-01  7.87071438E-03  0.00000000E+00 -5.35281342E-01  0.00000000E+00
  0.00000000E+00  9.14865717E-01 -1.74373824E-02 -7.11281992E-04  1.98977370E-03
 -6.97345535E-03 -6.28715405E-04  2.89862949E-03  3.72468225E-03  0.00000000E+00
 -9.48480928E-03 -1.59691047E-02  0.00000000E+00  3.06735506E-02 -9.24778930E-03
  0.00000000E+00  3.91387677E-03  0.00000000E+00  0.00000000E+00  1.03725226E-02
 -2.12871049E-02 -5.87840551E-02  2.50632860E-02 -3.40447003E-02  6.13092599E-03
 -2.03712165E-03 -5.87840551E-02  2.50632860E-02 -3.40447003E-02  6.13092599E-03
  2.03712165E-03
Orthonormal basis                          R   N=        3136
  4.72021465E-02  1.86843455E-01  2.24210134E-01 -1.09253495E-02  1.24275361E-02
  0.00000000E+00 -2.44485933E-02  1.12814288E-02  0.00000000E+00  4.41822746E-03
  0.00000000E+00  0.00000000E+00  4.30420259E-03 -1.46318414E-03  1.14705077E-02
  4.54491781E-02  7.81540932E-02 -3.21349925E-02  2.42849310E-03  0.00000000E+00
 -1.00483120E-01  7.75769469E-03  0.00000000E+00 -4.44929859E-03  0.00000000E+00
  0.00000000E+00  8.01123465E-03 -9.87175855E-04  2.26836964E-03  1.50000766E-02
  4.79764561E-02  7.65579243E-02  3.17263473E-03  1.12934608E-02  0.00000000E+00
  1.54049889E-02  5.41240595E-02  0.00000000E+00  3.63206864E-02  1.23962545E-01
  0.00000000E+00 -1.12560484E-02  0.00000000E+00  0.00000000E+00 -1.73459006E-02
  1.17214105E-02  1.14656293E-01  1.71898406E-01  1.50839573E-02 -2.63793057E-02
 -5.29889353E-02  1.14656293E-01  1.71898406E-01  1.50839573E-02 -2.63793057E-02
  5.29889353E-02  6.73512596E-03  2.56800619E-02  2.02714644E-02  2.14455584E-01
  6.86105090E-02  0.00000000E+00  2.91765494E-01  1.07282098E-01  0.00000000E+00
 -2.66982435E-02  0.00000000E+00  0.00000000E+00  7.98391642E-02 -1.78682747E-02
  6.65823375E-02  2.02629776E-01  2.40685781E-01 -6.93786156E-02  1.94915522E-02
  0.00000000E+00 -9.51469206E-02  4.35634974E-02  0.00000000E+00 -1.07713709E-02
  0.00000000E+00  0.00000000E+00  1.91108655E-02 -6.00193273E-03 -1.00547172E-02
 -5.26991838E-02 -1.28885493E-01 -1.42215909E-01  8.48925275E-03 -2.70469918E-02
  0.00000000E+00  2.80247975E-02 -8.78411897E-02  0.00000000E+00  7.10140721E-02
 -9.21592225E-02  0.00000000E+00  1.17248800E-02  0.00000000E+00  0.00000000E+00
  3.48793196E-02  1.32502005E-03 -2.52553565E-02 -1.48572124E-02  7.37399896E-02
  3.56957229E-02  9.96136171E-03 -2.52553565E-02 -1.48572124E-02  7.37399896E-02
  3.56957229E-02 -9.96136171E-03  1.39578399E-03 -5.59495141E-03 -2.52782669E-02
 -8.27549448E-02  2.18486847E-01  0.00000000E+00 -1.01874957E-01  3.12865240E-01
  0.00000000E+00  5.24590825E-02  0.00000000E+00  0.00000000E+00 -3.81224181E-03
 -1.36375351E-02 -2.78135255E-02 -8.37881248E-02 -9.94188446E-02  3.06636531E-02
  6.39465099E-02  0.00000000E+00  4.38434018E-02  1.44684194E-01  0.00000000E+00
  6.30504663E-03  0.00000000E+00  0.00000000E+00 -7.17100742E-03 -1.82233495E-02
 -1.28543632E-02 -6.63694155E-02 -1.60331916E-01 -1.80089103E-01 -3.06656945E-02
 -2.00936329E-02  0.00000000E+00 -9.87706639E-02 -6.40596784E-02  0.00000000E+00
 -1.40522351E-01 -4.92366613E-02  0.00000000E+00  1.93589773E-02  0.00000000E+00
  0.00000000E+00 -7.02438403E-04 -4.12612185E-02  1.08151498E-01  6.98830327E-02
 -1.53438710E-03  5.45408300E-02 -6.28575756E-02  1.08151498E-01  6.98830327E-02
 -1.53438710E-03  5.45408300E-02  6.28575756E-02  3.69917129E-02  6.82121909E-02
  1.49227557E-03 -1.20110312E-02 -3.95176812E-02  0.00000000E+00  3.15678691E-02
 -1.71797650E-02  0.00000000E+00  1.02379338E-01  0.00000000E+00  0.00000000E+00
 -1.54134819E-01 -1.83383955E-01 -8.29575212E-02 -1.81705988E-01 -1.57384356E-01
 -5.61370071E-03 -1.41929090E-01  0.00000000E+00 -6.93620757E-02 -1.96670529E-01
  0.00000000E+00  8.94551176E-03  0.00000000E+00  0.00000000E+00 -1.61225846E-02
  4.48215836E-02 -3.60000065E-02 -1.25603267E-01 -2.23176017E-01 -2.22933557E-01
  1.30342992E-01  1.25170477E-02  0.00000000E+00  2.74837429E-01  2.71749486E-02
  0.00000000E+00  2.88706148E-01  4.76787050E-02  0.00000000E+00 -4.01576894E-03
  0.00000000E+00  0.00000000E+00  3.93793056E-02  5.25412083E-02  4.29765467E-02
 -1.79587365E-02  3.72807639E-02 -1.67675182E-02 -4.05964191E-02  4.29765467E-02
 -1.79587365E-02  3.72807639E-02 -1.67675182E-02  4.05964191E-02 -9.14422919E-03
 -1.10625432E-02 -1.75403003E-02 -9.43120001E-02 -1.32442013E-01  0.00000000E+00
 -6.75613027E-02 -3.89023326E-02  0.00000000E+00 -5.48214691E-02  0.00000000E+00
  0.00000000E+00  2.18198652E-01 -9.82520582E-03  6.75607040E-02  1.42424845E-01
  1.13306721E-01  2.11637686E-03 -5.66039535E-02  0.00000000E+00  6.51711013E-02
 -8.34932074E-02  0.00000000E+00 -7.35947173E-03  0.00000000E+00  0.00000000E+00
  2.05174226E-02  1.20704112E-02 -4.24797172E-02 -1.41573141E-01 -2.44058044E-01
 -2.44227165E-01 -6.12356622E-02  1.35875848E-01  0.00000000E+00 -1.22406443E-01
  2.72133265E-01  0.00000000E+00 -1.11787050E-01  2.80449304E-01  0.00000000E+00
 -8.59505415E-03  0.00000000E+00  0.00000000E+00 -3.25111194E-02 -3.00930377E-02
 -3.44282599E-02 -1.89260383E-02 -1.30355445E-01 -8.60306098E-02  2.39574982E-02
 -3.44282599E-02 -1.89260383E-02 -1.30355445E-01 -8.60306098E-02 -2.39574982E-02
  2.09373041E-02  3.85008001E-02 -3.70646426E-03  1.26101247E-01 -7.18832542E-02
  0.00000000E+00  6.52213041E-02 -2.03121983E-02  0.00000000E+00  1.88988291E-01
  0.00000000E+00  0.00000000E+00 -7.33549555E-02  3.48395939E-01 -7.50690444E-02
 -1.50201487E-01 -1.21134797E-01 -6.06355361E-02  1.95341681E-01  0.00000000E+00
 -1.26958950E-01  2.38515224E-01  0.00000000E+00  7.98771925E-03  0.00000000E+00
  0.00000000E+00 -4.41881649E-03 -6.90849600E-02 -1.39844141E-02 -3.97683310E-02
 -5.45380011E-02 -6.89328956E-02 -2.33133154E-03  9.66754343E-02  0.00000000E+00
 -5.37877455E-03  1.82468294E-01  0.00000000E+00 -1.94711654E-02  1.23875264E-01
  0.00000000E+00 -1.23461651E-02  0.00000000E+00  0.00000000E+00 -5.94167218E-02
  2.04136402E-02 -3.58201400E-02 -3.25522658E-02  1.89584468E-01 -1.05892985E-01
  1.26934074E-01 -3.58201400E-02 -3.25522658E-02  1.89584468E-01 -1.05892985E-01
 -1.26934074E-01  3.71425442E-02  5.49725214E-02 -5.63911962E-03  8.21584736E-02
 -3.67255193E-02  0.00000000E+00 -2.41730971E-02 -6.86297411E-02  0.00000000E+00
  2.98105135E-01  0.00000000E+00  0.00000000E+00  2.51756523E-01 -1.31445482E-01
 -5.00902457E-02 -9.04181474E-02 -8.78386004E-02 -1.83441617E-01 -1.46566494E-01
  0.00000000E+00 -1.91254498E-01 -1.67172949E-01  0.00000000E+00  2.83798069E-03
  0.00000000E+00  0.00000000E+00  4.79891073E-02  3.14233151E-02  4.10746383E-03
  3.03329517E-03 -1.77415929E-02  1.84580302E-02 -1.35662204E-01 -1.34429459E-01
  0.00000000E+00 -2.25161780E-01 -2.22840223E-01  0.00000000E+00 -1.38011927E-01
 -8.50601743E-02  0.00000000E+00  5.16576277E-02  0.00000000E+00  0.00000000E+00
  5.63695580E-02 -5.81032846E-02  4.79169057E-02 -1.43901032E-02  2.55361390E-02
 -1.98639209E-01  6.32202258E-02  4.79169057E-02 -1.43901032E-02  2.55361390E-02
 -1.98639209E-01 -6.32202258E-02 -3.70641068E-02 -6.50147810E-02  2.28740255E-02
 -1.31503159E-01 -2.54510769E-02  0.00000000E+00  5.00766469E-02 -2.08119691E-02
  0.00000000E+00  3.61295779E-01  0.00000000E+00  0.00000000E+00 -1.96407019E-02
  4.00256788E-02  8.78614645E-02  1.52320770E-01  1.56465845E-01  3.63165696E-01
  1.21675318E-03  0.00000000E+00  3.40529669E-01 -1.56159180E-05  0.00000000E+00
  5.53515964E-02  0.00000000E+00  0.00000000E+00 -5.72625033E-02 -4.35613308E-03
  5.74174186E-04 -1.29521936E-03 -9.48138299E-03  2.52858091E-03  5.37763962E-02
 -5.77103483E-02  0.00000000E+00  8.32226257E-02 -9.11184930E-02  0.00000000E+00
  7.56671011E-02 -3.54855473E-02  0.00000000E+00  4.26296387E-02  0.00000000E+00
  0.00000000E+00 -1.97653372E-03 -3.56594884E-02  1.09817883E-01  5.74389927E-02
  5.79421473E-02 -1.43891387E-01  1.25163356E-01  1.09817883E-01  5.74389927E-02
  5.79421473E-02 -1.43891387E-01 -1.25163356E-01  1.54887313E-02  2.37412086E-02
 -1.69174443E-02 -1.45957962E-01 -1.58200816E-02  0.00000000E+00 -1.12804833E-01
 -1.63476391E-02  0.00000000E+00 -5.34249136E-02  0.00000000E+00  0.00000000E+00
  3.30821906E-01  8.63908978E-02  7.91682891E-03  1.14802979E-02 -2.77125247E-02
 -1.48861719E-01  2.47119970E-01  0.00000000E+00 -5.29715959E-02  2.19453436E-01
  0.00000000E+00 -2.21500015E-02  0.00000000E+00  0.00000000E+00  4.92738246E-02
 -2.98324298E-02 -6.29769034E-03 -1.45333317E-02 -2.22370526E-02 -1.22766769E-02
  2.45534043E-01 -1.35728118E-01  0.00000000E+00  3.02107571E-01 -1.66686216E-01
  0.00000000E+00  1.74111864E-01 -6.98386485E-02  0.00000000E+00  6.22710564E-03
  0.00000000E+00  0.00000000E+00 -1.24917948E-01 -1.56549885E-01 -2.82685623E-02
 -2.40007747E-02 -1.77570418E-01 -1.50652501E-01 -3.57568923E-02 -2.82685623E-02
 -2.40007747E-02 -1.77570418E-01 -1.50652501E-01  3.57568923E-02 -2.22973371E-01
 -2.41120149E-01 -2.10644279E-03  1.72363583E-01 -1.25984562E-01  0.00000000E+00
 -6.77996245E-02  8.84258475E-02  0.00000000E+00 -2.37833129E-03  0.00000000E+00
  0.00000000E+00  5.09172005E-02 -3.46734553E-02 -2.84010482E-02 -3.22129567E-02
 -3.91578709E-02 -1.49382973E-01 -1.95216432E-02  0.00000000E+00 -6.21129272E-02
 -1.89667129E-02  0.00000000E+00 -8.45525614E-03  0.00000000E+00  0.00000000E+00
  2.18040306E-02  2.30699467E-02  1.45505293E-02  1.95163996E-02  8.49678927E-03
  8.14766539E-03  8.89100763E-02  3.55334583E-02  0.00000000E+00  9.05330915E-02
  3.32855857E-02  0.00000000E+00  3.65875466E-02  1.69330792E-02  0.00000000E+00
  4.95785516E-02  0.00000000E+00  0.00000000E+00  5.25944262E-02 -6.79344578E-02
  1.53452732E-01  1.82555183E-01 -1.32570215E-01  1.84861484E-01  3.79321051E-01
  1.53452732E-01  1.82555183E-01 -1.32570215E-01  1.84861484E-01 -3.79321051E-01
 -1.58629034E-02 -3.76177258E-02 -3.88025734E-02  2.89569345E-02  1.80274804E-01
  0.00000000E+00  9.44730708E-03  7.51575168E-03  0.00000000E+00  8.95628960E-02
  0.00000000E+00  0.00000000E+00  8.71414348E-02 -7.91855644E-02  2.83232919E-03
  2.89950454E-03 -4.16606864E-03 -2.41195113E-02 -8.91819115E-03  0.00000000E+00
 -8.34965460E-04  4.44537511E-03  0.00000000E+00  7.33047178E-03  0.00000000E+00
  0.00000000E+00  2.38930590E-02  1.03323764E-02  5.32376671E-01  4.70957237E-01
 -9.42710489E-02 -9.71856882E-03  8.56669263E-02  2.20853659E-01  0.00000000E+00
  6.38849858E-02  1.65808137E-01  0.00000000E+00  3.10619509E-02  7.76055604E-02
  0.00000000E+00  1.71003128E-01  0.00000000E+00  0.00000000E+00  2.04499893E-01
 -2.09820678E-01 -4.64475109E-03 -4.06201574E-02  3.26692854E-02 -3.33285367E-02
 -6.31598692E-02 -4.64475109E-03 -4.06201574E-02  3.26692854E-02 -3.33285367E-02
  6.31598692E-02  4.80228760E-02  6.49330915E-02  2.82520745E-02 -5.54874388E-02
 -2.39374435E-01  0.00000000E+00  4.07863622E-03  4.33184796E-02  0.00000000E+00
 -9.00406333E-02  0.00000000E+00  0.00000000E+00 -7.88289562E-02  9.03241571E-02
 -6.91950473E-03 -5.77285919E-03  2.17675316E-03  2.32047479E-02 -2.32504769E-02
  0.00000000E+00 -3.06492912E-03 -2.43859161E-02  0.00000000E+00 -9.44910729E-03
  0.00000000E+00  0.00000000E+00 -3.40927527E-02 -1.82070964E-02  4.33229979E-01
  2.54145989E-01 -2.33649009E-01 -1.29485247E-01 -9.56131337E-02 -2.63902838E-01
  0.00000000E+00 -5.37901625E-02 -1.49878418E-01  0.00000000E+00 -1.15446484E-02
 -2.81891539E-02  0.00000000E+00 -2.80562611E-01  0.00000000E+00  0.00000000E+00
 -3.48010073E-01  3.28886753E-01  9.98861719E-03  2.98264507E-02 -4.67136491E-02
  1.51721905E-02  7.29888736E-02  9.98861719E-03  2.98264507E-02 -4.67136491E-02
  1.51721905E-02 -7.29888736E-02  2.97721161E-02  1.16583343E-02  1.07924396E-02
  2.51206217E-02 -1.68239188E-01  0.00000000E+00  4.24186076E-02 -6.17822846E-02
  0.00000000E+00  4.65877408E-02  0.00000000E+00  0.00000000E+00 -7.00642325E-02
 -3.07294052E-01 -2.77068230E-02 -1.86108285E-02  5.12923096E-04  4.27064597E-02
  4.46938578E-01  0.00000000E+00  1.02175264E-03  2.38802503E-01  0.00000000E+00
  1.86004452E-02  0.00000000E+00  0.00000000E+00 -6.21244205E-03  4.97379501E-01
  1.70495542E-02  3.55198404E-03 -2.50765855E-02 -6.71288126E-03 -1.25436072E-01
 -1.25875702E-02  0.00000000E+00 -5.95451585E-02 -6.38584143E-03  0.00000000E+00
  8.83862703E-03  3.53558406E-02  0.00000000E+00  3.24350694E-02  0.00000000E+00
  0.00000000E+00  3.25320840E-01  2.83020372E-01  8.15694814E-03 -5.60515704E-03
 -9.79737166E-02 -4.12141019E-02 -2.63273110E-03  8.15694814E-03 -5.60515704E-03
 -9.79737166E-02 -4.12141019E-02  2.63273110E-03  1.02295439E-01  7.59784716E-02
  1.62142679E-02  1.63576368E-01 -2.87623226E-02  0.00000000E+00 -1.16166936E-02
  1.75374112E-03  0.00000000E+00 -4.93789020E-02  0.00000000E+00  0.00000000E+00
  5.51187154E-02 -4.49626821E-03 -2.13599423E-01 -7.10538237E-02 -9.18748958E-03
  2.66385830E-01 -8.69675002E-04  0.00000000E+00  1.36673665E-01 -1.28326832E-03
  0.00000000E+00 -4.46484464E-01  0.00000000E+00  0.00000000E+00  7.49430027E-01
 -3.18686437E-03  3.68861419E-03 -7.10014501E-04 -6.68890246E-03 -3.28299404E-03
  8.64943268E-03 -3.11273794E-02  0.00000000E+00  2.34576124E-03 -8.51366098E-03
  0.00000000E+00 -1.45275401E-03  1.41212925E-02  0.00000000E+00 -1.69420030E-02
  0.00000000E+00  0.00000000E+00  7.85109772E-03 -3.41206519E-02 -4.37736181E-03
  1.10023649E-02  8.34578772E-03  1.88052953E-02  2.07844733E-02 -4.37736181E-03
  1.10023649E-02  8.34578772E-03  1.88052953E-02 -2.07844733E-02 -1.30525918E-02
  5.98973230E-03 -1.24563321E-03 -1.70649585E-03 -1.08538589E-02  0.00000000E+00
 -2.00613317E-03  8.24868672E-03  0.00000000E+00  3.29632072E-03  0.00000000E+00
  0.00000000E+00  1.12955524E-03 -2.31591358E-03  1.53554827E-02  2.87644807E-03
 -7.89197612E-04 -3.78820286E-03 -9.47403206E-03  0.00000000E+00 -2.36836430E-03
 -1.73226874E-03  0.00000000E+00  8.41880833E-01  0.00000000E+00  0.00000000E+00
  5.06520157E-01  4.48823259E-02 -5.30340315E-03  1.67002543E-03  8.90594342E-03
  3.19394957E-03  4.57723326E-02  4.42273955E-02  0.00000000E+00  6.67727588E-03
  6.42503943E-03  0.00000000E+00 -2.34187146E-02 -2.15167266E-02  0.00000000E+00
 -1.51428656E-01  0.00000000E+00  0.00000000E+00 -2.80299882E-02 -1.47747286E-02
 -4.58186601E-03 -2.25292024E-03  1.36908389E-02  2.76946116E-02 -1.40113559E-02
 -4.58186601E-03 -2.25292024E-03  1.36908389E-02  2.76946116E-02  1.40113559E-02
 -2.22862373E-02  3.54718513E-03 -5.60591881E-03  5.86347508E-03  2.26580503E-03
  0.00000000E+00 -7.46776177E-03 -1.36778603E-03  0.00000000E+00 -2.24922516E-03
  0.00000000E+00  0.00000000E+00 -5.54775945E-03 -1.64798082E-03  3.72598249E-02
  7.61108250E-03 -4.62998485E-03 -2.78836877E-02 -1.49535609E-02  0.00000000E+00
 -3.46771838E-03 -1.40476401E-04  0.00000000E+00  8.02342951E-02  0.00000000E+00
  0.00000000E+00  1.13646716E-01 -8.23814778E-02 -4.72060739E-05  5.20980726E-05
  1.77315847E-04 -8.97943670E-04  2.84109957E-02  3.09171914E-03  0.00000000E+00
  4.03675593E-03  3.27521032E-04  0.00000000E+00 -1.51678854E-02 -2.41994240E-03
  0.00000000E+00  8.36092309E-01  0.00000000E+00  0.00000000E+00 -3.02206265E-01
  4.20045461E-01 -5.72801938E-03 -1.30763811E-03 -3.18683640E-02  3.14866987E-03
 -2.01413192E-02 -5.72801938E-03 -1.30763811E-03 -3.18683640E-02  3.14866987E-03
  2.01413192E-02  1.59184701E-02  5.01580729E-03 -2.83243087E-03  3.72681123E-03
 -1.23303656E-02  0.00000000E+00 -7.65338915E-03  2.35763979E-02  0.00000000E+00
  3.81380816E-03  0.00000000E+00  0.00000000E+00 -6.12731634E-03  4.49236280E-03
  1.58853383E-02  3.18258153E-03  1.23668796E-03 -1.58636839E-03 -7.47719590E-02
  0.00000000E+00 -2.83773955E-03 -4.45017610E-03  0.00000000E+00 -4.16125261E-02
  0.00000000E+00  0.00000000E+00 -2.82327041E-02  6.89261565E-01 -9.80858012E-03
  2.88375236E-03  1.51769867E-02  8.49949883E-03 -8.04640798E-02  1.06155504E-01
  0.00000000E+00 -1.04724527E-02  1.36766712E-02  0.00000000E+00  4.75657285E-02
 -5.12856451E-02  0.00000000E+00  7.93353170E-02  0.00000000E+00  0.00000000E+00
 -5.51949809E-01 -3.84885765E-01 -1.11621995E-02 -4.32787971E-03  1.19560474E-01
  6.21624174E-02 -1.31656512E-03 -1.11621995E-02 -4.32787971E-03  1.19560474E-01
  6.21624174E-02  1.31656512E-03 -4.10858185E-01  4.80723995E-02 -3.51600474E-02
 -2.90945021E-02  5.86770913E-02  0.00000000E+00 -7.87171049E-02  2.30388976E-02
  0.00000000E+00  8.24952568E-02  0.00000000E+00  0.00000000E+00 -3.45394561E-02
  3.34982093E-04  6.05354491E-01  8.01752268E-03 -8.74416014E-02 -1.15631322E-01
 -8.19246522E-02  0.00000000E+00 -5.91305551E-02 -8.21762037E-03  0.00000000E+00
 -2.03836047E-01  0.00000000E+00  0.00000000E+00  1.86016487E-01  1.66137735E-01
 -1.88460520E-02  6.29789531E-03  2.18847615E-02  1.35608889E-02  3.86449865E-01
  1.22859963E-01  0.00000000E+00  2.68019433E-03  3.24339487E-04  0.00000000E+00
 -1.88810068E-01 -4.89722954E-02  0.00000000E+00 -1.87381971E-01  0.00000000E+00
  0.00000000E+00 -4.91344295E-03  2.78617470E-01  2.76870946E-02 -3.72397814E-02
  9.92005943E-02 -6.99771855E-02 -4.87932642E-02  2.76870946E-02 -3.72397814E-02
  9.92005943E-02 -6.99771855E-02  4.87932642E-02  8.28912405E-01 -6.54540404E-02
 -3.57974867E-02  7.39406677E-02 -6.50310382E-02  0.00000000E+00 -7.49255708E-02
  3.51837505E-02  0.00000000E+00 -1.26666527E-02  0.00000000E+00  0.00000000E+00
 -2.62828237E-02  2.40573525E-02  3.78429862E-01 -1.46490711E-02 -6.18451200E-02
  2.79334907E-02 -6.20790173E-02  0.00000000E+00 -2.26772986E-02 -7.23285892E-03
  0.00000000E+00  1.58225770E-02  0.00000000E+00  0.00000000E+00 -3.43567720E-02
  6.78365270E-02 -1.41982531E-03  1.50294898E-03  4.46207405E-03  9.60553693E-04
  3.22786417E-01 -7.30825581E-02  0.00000000E+00 -8.79119469E-03  1.61167455E-03
  0.00000000E+00 -1.65119374E-01  3.17344966E-02  0.00000000E+00  5.60755266E-02
  0.00000000E+00  0.00000000E+00  1.00590277E-01 -2.94807641E-02 -5.23441094E-03
  9.61961791E-03 -7.77927110E-04  7.93954279E-02  1.17471154E-01 -5.23441094E-03
  9.61961791E-03 -7.77927110E-04  7.93954279E-02 -1.17471154E-01 -1.41769421E-03
 -6.14785204E-03 -1.43259577E-02 -1.17830226E-02 -3.11775670E-02  0.00000000E+00
 -4.85741190E-02 -4.26405344E-02  0.00000000E+00  1.01763942E-02  0.00000000E+00
  0.00000000E+00 -9.17940117E-02 -3.15743182E-02  6.33294123E-01 -9.05257810E-02
 -1.33348407E-01 -1.02823208E-02  1.52817223E-01  0.00000000E+00 -4.12747453E-02
  1.17676331E-02  0.00000000E+00 -3.95811371E-02  0.00000000E+00  0.00000000E+00
  1.59184939E-01 -1.95969499E-01  2.28541295E-02 -1.10171067E-02 -2.66051011E-02
 -2.71993695E-02 -6.20378386E-01 -9.44057352E-02  0.00000000E+00  6.54534289E-02
  9.94505119E-03  0.00000000E+00  3.11644217E-01  1.82767393E-02  0.00000000E+00
  7.41516376E-02  0.00000000E+00  0.00000000E+00  6.36417303E-03 -2.19863169E-01
  2.44855902E-02 -6.13687846E-03 -2.02302865E-02  4.43950068E-02  6.45960109E-03
  2.44855902E-02 -6.13687846E-03 -2.02302865E-02  4.43950068E-02 -6.45960109E-03
  2.42177028E-01 -8.87533716E-03 -1.19730266E-02 -3.32055073E-02 -7.99403181E-03
  0.00000000E+00  3.22966518E-02  4.71973413E-02  0.00000000E+00  7.72375789E-02
  0.00000000E+00  0.00000000E+00  8.08034457E-02 -9.32437637E-02 -2.04312548E-02
  1.99162601E-03 -3.47015295E-03 -3.47873666E-02  4.35936925E-02  0.00000000E+00
  4.34018149E-03  4.00789476E-03  0.00000000E+00 -5.44631986E-02  0.00000000E+00
  0.00000000E+00  3.05524666E-04 -1.36485037E-01 -3.56357686E-02  1.55097535E-02
  3.25239007E-02  4.56385752E-02 -1.50962130E-01  8.04696064E-01  0.00000000E+00
  1.92357461E-02 -1.04867943E-01  0.00000000E+00  1.06886715E-01 -3.59807926E-01
  0.00000000E+00 -1.78162446E-01  0.00000000E+00  0.00000000E+00 -1.88728793E-01
  2.14702091E-01  8.23481370E-02  4.80505537E-03 -1.13558570E-01 -6.18515474E-02
  4.32820137E-02  8.23481370E-02  4.80505537E-03 -1.13558570E-01 -6.18515474E-02
 -4.32820137E-02 -1.27554300E-01  1.17249360E-01  2.76942467E-02  2.77793015E-01
 -3.16432456E-01  0.00000000E+00  4.21404012E-03 -8.93837047E-02  0.00000000E+00
  1.24303896E-01  0.00000000E+00  0.00000000E+00 -1.45878341E-01 -4.53921446E-01
  5.47000388E-02 -5.52120866E-02  2.27589480E-03  2.32978302E-01  4.62391882E-01
  0.00000000E+00 -9.70909239E-02 -1.04765437E-01  0.00000000E+00  3.17786618E-02
  0.00000000E+00  0.00000000E+00 -1.00117373E-01 -3.66712455E-01  8.52944038E-02
 -9.81598613E-02 -4.07844446E-02  1.34059470E-02  3.35787900E-01  6.84751195E-02
  0.00000000E+00 -2.31035717E-01 -4.89253962E-02  0.00000000E+00 -1.82941613E-01
  8.34361908E-03  0.00000000E+00  1.51740359E-02  0.00000000E+00  0.00000000E+00
 -3.16832179E-01 -3.36365232E-01 -9.75791267E-03 -2.15062731E-02 -1.84001479E-02
  8.92566875E-02 -1.01955342E-01 -9.75791267E-03 -2.15062731E-02 -1.84001479E-02
  8.92566875E-02  1.01955342E-01  1.80552914E-02 -1.84276588E-02 -3.10883447E-02
  5.21312617E-02  3.73515328E-03  0.00000000E+00  1.76973740E-02  3.42112793E-02
  0.00000000E+00  6.20063356E-02  0.00000000E+00  0.00000000E+00  1.10480179E-03
 -1.14014475E-01 -2.52233466E-03  4.45715180E-03  3.04553531E-03 -1.81764218E-03
  6.82858463E-02  0.00000000E+00 -1.40668617E-03 -1.78570229E-02  0.00000000E+00
 -4.34715990E-03  0.00000000E+00  0.00000000E+00 -8.68697867E-03 -5.93955426E-02
 -7.66395947E-01  8.76755146E-01 -1.63070321E-01 -1.00436888E-01  7.69884919E-03
 -8.45752900E-02  0.00000000E+00 -6.18923987E-03  7.18717262E-02  0.00000000E+00
  1.33273941E-02  9.37429570E-02  0.00000000E+00 -6.27730071E-02  0.00000000E+00
  0.00000000E+00 -1.25458891E-01  2.71570637E-02  2.20430418E-02 -3.03380589E-02
 -1.38123124E-02  3.50276925E-03 -8.92079171E-03  2.20430418E-02 -3.03380589E-02
 -1.38123124E-02  3.50276925E-03  8.92079171E-03 -1.35480968E-01  1.40193771E-01
  5.69013087E-02  5.57527559E-01  1.27792463E-01  0.00000000E+00  2.86804413E-03
  7.83968588E-02  0.00000000E+00 -1.32663719E-01  0.00000000E+00  0.00000000E+00
 -2.45159937E-02  1.93393626E-01  1.42969761E-01 -2.60001121E-01 -6.88104332E-02
  6.28131682E-01 -3.44014092E-01  0.00000000E+00 -2.53548264E-01  1.86761581E-01
  0.00000000E+00  1.28882176E-01  0.00000000E+00  0.00000000E+00 -1.85869231E-01
  1.25191165E-01 -2.87884200E-02  3.69034037E-02 -2.48394238E-02 -2.91270499E-03
 -2.25614453E-02  6.32135874E-02  0.00000000E+00  2.63213760E-02 -7.41417936E-02
  0.00000000E+00 -5.73595160E-03 -1.92584775E-02  0.00000000E+00  2.13648501E-02
  0.00000000E+00  0.00000000E+00  3.31454129E-02 -2.32843762E-02 -1.19238991E-01
  5.03178381E-02 -3.74248018E-01 -2.12752820E-01 -1.53467565E-02 -1.19238991E-01
  5.03178381E-02 -3.74248018E-01 -2.12752820E-01  1.53467565E-02  1.38393196E-01
 -2.66842242E-01 -8.21233637E-02  3.87372181E-01  7.66264050E-01  0.00000000E+00
 -5.33835255E-02 -1.75654278E-01  0.00000000E+00  1.32013065E-01  0.00000000E+00
  0.00000000E+00 -2.95767799E-01 -1.39125028E-01 -5.30033809E-02  1.50358215E-01
  5.58561409E-02 -2.19725961E-01  2.51239979E-01  0.00000000E+00  8.67877676E-02
 -2.10430638E-01  0.00000000E+00 -2.19970157E-02  0.00000000E+00  0.00000000E+00
  4.79694382E-02  1.14287520E-02  8.97283681E-02 -1.24458495E-01  1.66882789E-01
 -6.84725454E-03 -1.84807956E-02 -2.45270750E-01  0.00000000E+00  1.88383788E-02
  3.24912026E-01  0.00000000E+00  2.29188687E-02  1.18989357E-01  0.00000000E+00
 -2.18288370E-01  0.00000000E+00  0.00000000E+00 -3.60367941E-01  1.41259649E-01
  1.43578779E-01 -8.67156571E-02 -2.25805160E-01 -2.17201891E-01  5.03978395E-02
  1.43578779E-01 -8.67156571E-02 -2.25805160E-01 -2.17201891E-01 -5.03978395E-02
  3.33447401E-02 -2.03721874E-02 -3.34015910E-02  1.19911634E-01 -4.55401206E-01
  0.00000000E+00  9.20883423E-02  2.06352795E-01  0.00000000E+00  2.87929406E-01
  0.00000000E+00  0.00000000E+00 -5.72075491E-01 -1.90133050E-01 -4.31763947E-02
  1.40319944E-01  1.08496118E-01 -5.24449081E-01 -5.35646282E-01  0.00000000E+00
  2.87502343E-01  6.41232820E-01  0.00000000E+00 -7.25183918E-02  0.00000000E+00
  0.00000000E+00  1.22779269E-01 -1.09807609E-01  1.45813279E-02  2.01190893E-03
  9.71548857E-02  1.35389559E-02 -1.91430601E-02 -5.21810181E-02  0.00000000E+00
  5.15448427E-02  1.03477046E-01  0.00000000E+00 -1.03690169E-01 -3.48343648E-02
  0.00000000E+00  2.54039415E-02  0.00000000E+00  0.00000000E+00 -3.19983694E-02
 -2.19108686E-01 -5.37134357E-03 -2.48679235E-02 -2.38785844E-01 -1.47589749E-01
 -1.71627404E-01 -5.37134357E-03 -2.48679235E-02 -2.38785844E-01 -1.47589749E-01
  1.71627404E-01  3.20783697E-02 -8.46323864E-02 -1.93333572E-01  2.37990344E-01
 -1.36405170E-01  0.00000000E+00 -5.05377085E-01  1.36433541E-02  0.00000000E+00
  4.09679126E-01  0.00000000E+00  0.00000000E+00  3.31973143E-01 -1.65674416E-01
 -1.22176165E-01  6.28476990E-01 -1.84309402E-01  3.42042531E-01 -1.76022395E-01
  0.00000000E+00 -4.51095165E-01  2.62810899E-01  0.00000000E+00 -3.99455317E-03
  0.00000000E+00  0.00000000E+00 -6.82918369E-02 -5.10993585E-02  4.18883864E-02
 -5.09874741E-02  1.87277825E-01 -1.10747501E-02 -2.71545966E-01 -7.86750215E-02
  0.00000000E+00  5.68467436E-01  1.49815142E-01  0.00000000E+00 -2.12008940E-01
  9.34565350E-02  0.00000000E+00 -1.33536770E-01  0.00000000E+00  0.00000000E+00
 -8.88009706E-02  2.24555413E-01  1.05680627E-01 -1.88832695E-01  1.33388867E-01
  2.72729191E-01 -1.56936673E-01  1.05680627E-01 -1.88832695E-01  1.33388867E-01
  2.72729191E-01  1.56936673E-01  3.36847185E-02 -1.49805449E-01  6.71035837E-02
  8.02079190E-02 -3.36745725E-02  0.00000000E+00  4.34346367E-01 -5.25291616E-02
  0.00000000E+00  5.06890810E-01  0.00000000E+00  0.00000000E+00  6.94737303E-01
  3.42404969E-02  1.18256236E-01 -6.60865264E-01  1.36252895E-01  6.07842393E-04
 -1.44461472E-01  0.00000000E+00  2.63280654E-01  1.88411283E-01  0.00000000E+00
  7.13452928E-04  0.00000000E+00  0.00000000E+00 -8.70126966E-02  8.71404074E-03
  5.13173660E-02 -5.28601866E-02  2.77686971E-01  1.41088002E-02  1.11597169E-01
 -1.92773027E-01  0.00000000E+00 -2.76723510E-01  4.22205849E-01  0.00000000E+00
  3.38280946E-01  1.88695321E-02  0.00000000E+00 -1.74477680E-01  0.00000000E+00
  0.00000000E+00 -1.52665331E-01  2.42616277E-01  7.74557623E-02 -3.34621391E-02
 -1.40566248E-01  3.86894215E-01 -2.69934749E-01  7.74557623E-02 -3.34621391E-02
 -1.40566248E-01  3.86894215E-01  2.69934749E-01 -2.82421246E-02  3.07079740E-01
 -5.08279843E-02  3.59840015E-02 -1.48044027E-01  0.00000000E+00 -7.75440013E-02
 -1.30566649E-01  0.00000000E+00  4.38474561E-01  0.00000000E+00  0.00000000E+00
 -3.12003805E-01  8.62746551E-01 -6.47697475E-02  3.81609828E-01 -3.89010354E-02
 -9.66779315E-02  2.01519850E-01  0.00000000E+00 -1.35825468E-01 -4.34596774E-01
  0.00000000E+00 -4.84329661E-02  0.00000000E+00  0.00000000E+00  7.81013741E-02
  2.00326926E-01 -3.59276827E-02  3.90394604E-02 -1.99230532E-01 -1.48919706E-02
  1.15493932E-01  5.08506767E-02  0.00000000E+00 -2.72948972E-01 -9.21513969E-02
  0.00000000E+00  1.42263143E-01 -2.19136718E-01  0.00000000E+00  1.23332225E-01
  0.00000000E+00  0.00000000E+00  2.52244798E-01 -1.26543450E-01  2.73932757E-01
 -2.31588236E-01 -4.14692130E-01  2.96244278E-01 -2.11252918E-01  2.73932757E-01
 -2.31588236E-01 -4.14692130E-01  2.96244278E-01  2.11252918E-01  3.32434871E-03
 -1.45016198E-01  6.53992044E-02  5.74880708E-01 -9.15791904E-02  0.00000000E+00
 -2.59146614E-01  9.30350615E-03  0.00000000E+00  2.48746885E-01  0.00000000E+00
  0.00000000E+00  9.34575120E-02  2.78787936E-01  4.43671935E-02 -2.70412415E-01
  1.86048090E-01 -3.43929936E-01  2.30317111E-01  0.00000000E+00  6.08034707E-01
 -4.07487902E-01  0.00000000E+00  3.20559702E-02  0.00000000E+00  0.00000000E+00
 -9.24543227E-02  8.37798894E-02 -1.62580560E-02 -1.74345988E-03 -1.35349356E-01
  1.20685290E-02 -2.34599839E-01  1.93623092E-01  0.00000000E+00  5.70974399E-01
 -4.84246054E-01  0.00000000E+00 -4.12055446E-01  3.22768169E-01  0.00000000E+00
 -3.49429910E-02  0.00000000E+00  0.00000000E+00  4.30734658E-02  8.86409468E-02
 -3.07062902E-01  2.98136756E-01  3.05107942E-02  8.61173824E-02 -2.87089427E-01
 -3.07062902E-01  2.98136756E-01  3.05107942E-02  8.61173824E-02  2.87089427E-01
 -4.56854809E-02  9.09904787E-01  1.05461714E-02  1.24861166E-01  3.12184211E-02
  0.00000000E+00  1.37081425E-01 -1.69855879E-01  0.00000000E+00 -3.50996812E-01
  0.00000000E+00  0.00000000E+00  1.44763999E-01 -7.89225762E-02  5.25761685E-02
 -4.47369626E-01  2.48776283E-01 -1.06163395E-01 -8.77870452E-03  0.00000000E+00
  4.53906836E-01  3.71378539E-02  0.00000000E+00  9.53473015E-02  0.00000000E+00
  0.00000000E+00 -1.53386452E-01 -7.66213060E-03 -8.22445323E-04  2.90205079E-03
 -6.25807179E-04  1.24453894E-02 -1.94410272E-01 -4.82731340E-02  0.00000000E+00
  5.75228485E-01  1.53988479E-01  0.00000000E+00 -6.49459011E-01 -1.65936943E-01
  0.00000000E+00  7.21293011E-02  0.00000000E+00  0.00000000E+00  2.73246763E-02
 -9.17587536E-02  5.35269358E-01 -5.26956841E-01 -4.65335863E-03  6.81531543E-02
  2.60602635E-01  5.35269358E-01 -5.26956841E-01 -4.65335863E-03  6.81531543E-02
 -2.60602635E-01 -9.39003769E-03  8.35356471E-02 -3.79088968E-02 -1.94760436E-02
  2.98062568E-01  0.00000000E+00 -7.68898755E-03 -3.58794880E-01  0.00000000E+00
 -1.34909355E-02  0.00000000E+00  0.00000000E+00 -7.69637896E-02 -6.18602370E-02
 -2.04565087E-03  2.08716090E-02  1.21532197E-02 -4.91356772E-02 -2.07185471E-01
  0.00000000E+00  6.32277079E-02  4.33120101E-01  0.00000000E+00  8.15410921E-03
  0.00000000E+00  0.00000000E+00  4.03544627E-03 -4.19140373E-02  2.98637372E-02
  2.20095472E-02  3.18435982E-01 -3.30440576E-01  1.05488675E-01  3.50172731E-01
  0.00000000E+00 -3.23216390E-01 -1.07714419E+00  0.00000000E+00  3.00171617E-01
  1.16106529E+00  0.00000000E+00 -4.47440747E-02  0.00000000E+00  0.00000000E+00
 -8.21920084E-02  2.30838584E-02  1.65132350E-01 -3.13258844E-01 -1.76034078E-02
  2.10581998E-01  1.26108834E-01  1.65132350E-01 -3.13258844E-01 -1.76034078E-02
  2.10581998E-01 -1.26108834E-01  2.31705750E-02 -4.23011047E-01  4.06157129E-02
 -7.44273091E-01 -5.28869977E-02  0.00000000E+00  1.01308993E+00  3.48969661E-01
  0.00000000E+00  2.69179782E-01  0.00000000E+00  0.00000000E+00 -2.45346788E-01
  9.31590437E-02  8.16463396E-03 -2.60807089E-01  1.40995482E-01  2.15181759E-01
  1.69929908E-01  0.00000000E+00 -7.30803875E-01 -3.75701149E-01  0.00000000E+00
 -1.33329333E-01  0.00000000E+00  0.00000000E+00  2.08476329E-01  3.40358048E-02
  4.13547254E-02  5.63024929E-02  5.15971114E-01 -1.91791101E-01 -1.75453935E-01
  4.27820968E-02  0.00000000E+00  5.94688229E-01 -1.32892482E-01  0.00000000E+00
 -7.74451601E-01  3.98604130E-01  0.00000000E+00  5.51936468E-03  0.00000000E+00
  0.00000000E+00 -1.02060858E-01 -1.27368958E-01 -9.90892930E-03 -3.26005988E-02
 -3.16057764E-01 -2.28470051E-02 -3.86646545E-02 -9.90892930E-03 -3.26005988E-02
 -3.16057764E-01 -2.28470051E-02  3.86646545E-02 -8.17154661E-03  3.23586785E-01
 -3.07488358E-01  3.28961362E-01 -4.78570735E-01  0.00000000E+00 -1.97752553E-01
  1.14841160E+00  0.00000000E+00 -2.36718910E-01  0.00000000E+00  0.00000000E+00
  1.51626204E-01  8.68714964E-02 -1.40985632E-03  1.19176987E-01 -1.23767884E-01
 -3.92054074E-02  2.31851251E-01  0.00000000E+00  2.72414291E-01 -5.65135629E-01
  0.00000000E+00  7.25978437E-02  0.00000000E+00  0.00000000E+00 -1.03697893E-01
  5.73242186E-02  9.39071826E-02  1.39792041E-01  1.20748646E+00 -6.54245829E-01
  4.94388616E-02 -2.56538405E-02  0.00000000E+00 -1.65933221E-01  1.12186588E-01
  0.00000000E+00  4.44673444E-01  1.48999339E-01  0.00000000E+00  2.83900418E-02
  0.00000000E+00  0.00000000E+00  8.61289291E-02  6.01403502E-02  7.18230600E-02
 -1.38256927E-01  9.97437792E-02 -3.06462488E-01 -1.31384722E-02  7.18230600E-02
 -1.38256927E-01  9.97437792E-02 -3.06462488E-01  1.31384722E-02  4.43684757E-02
 -1.56312028E+00  1.36112632E-01  4.26423787E-01 -6.65101067E-01  0.00000000E+00
 -2.10945246E-02 -6.28628753E-02  0.00000000E+00 -8.63127078E-01  0.00000000E+00
  0.00000000E+00  5.62910706E-02  3.48090055E-01  6.64956788E-03 -3.09577405E-01
  2.58608704E-01  1.46068851E-01 -6.39711407E-03  0.00000000E+00 -1.63544977E-01
 -1.59454772E-02  0.00000000E+00  3.02994583E-02  0.00000000E+00  0.00000000E+00
  1.02865452E-02  2.76351729E-02 -2.41726406E-02 -4.20406467E-02 -3.49236763E-01
  2.72620197E-01  1.86182700E-02  5.09001331E-02  0.00000000E+00 -7.78606978E-02
 -2.04445754E-01  0.00000000E+00  3.84726170E-02  9.90691215E-02  0.00000000E+00
  7.10492527E-02  0.00000000E+00  0.00000000E+00  6.86127326E-02 -3.77409894E-02
  1.10619864E+00 -2.87536341E-01  3.46069330E-01 -4.57600613E-01 -6.27182135E-01
  1.10619864E+00 -2.87536341E-01  3.46069330E-01 -4.57600613E-01  6.27182135E-01
  6.39160352E-04 -3.06494423E-01  6.50068720E-01 -4.62176945E-01  1.01490111E-01
  0.00000000E+00 -2.12354500E+00  6.86986359E-01  0.00000000E+00  6.10888012E-01
  0.00000000E+00  0.00000000E+00 -6.30487622E-01 -8.45129703E-02 -4.83143446E-02
 -1.33594497E+00  3.03667222E+00  3.85598969E-02  1.31018273E-02  0.00000000E+00
 -1.07277168E+00 -3.92244033E-02  0.00000000E+00 -1.09548193E-01  0.00000000E+00
  0.00000000E+00  1.87757794E-01 -1.06170928E-02  9.04758168E-04  7.16032545E-03
  2.14391561E-02 -9.52256287E-02  1.83469403E-02 -8.59308297E-03  0.00000000E+00
 -9.86432199E-02  4.61215398E-02  0.00000000E+00  4.38513913E-01 -2.81515130E-01
  0.00000000E+00  2.23748687E-02  0.00000000E+00  0.00000000E+00  1.33382505E-01
  8.97942015E-02 -4.65914469E-01 -7.77862872E-01  7.41749872E-02  1.08933602E-01
  3.34709837E-01 -4.65914469E-01 -7.77862872E-01  7.41749872E-02  1.08933602E-01
 -3.34709837E-01 -3.42121654E-02 -1.31052030E-01  1.94152441E+00  1.07810119E-01
  5.60581617E-02  0.00000000E+00  4.31123455E-01  2.52617886E+00  0.00000000E+00
  3.53560647E-01  0.00000000E+00  0.00000000E+00  3.46619793E-01 -3.13983676E-01
  1.93366526E-02  4.79289317E-01 -1.09514316E+00 -6.37247253E-02  1.15175700E-01
  0.00000000E+00  4.97812937E-01 -4.77438448E-01  0.00000000E+00  3.51483577E-02
  0.00000000E+00  0.00000000E+00 -5.33767535E-02  2.17708108E-02 -6.03097385E-02
 -3.48764117E-01 -1.27251904E+00  2.79744822E+00 -7.33084080E-03  4.10053369E-03
  0.00000000E+00  1.20155526E-02 -7.47472447E-02  0.00000000E+00  4.64894278E-01
  1.22629682E+00  0.00000000E+00 -1.44007578E-01  0.00000000E+00  0.00000000E+00
 -1.86506478E-01  2.08782926E-01 -4.16147281E-01 -1.42660171E+00 -2.04866193E-01
 -5.65664086E-03  4.05305444E-01 -4.16147281E-01 -1.42660171E+00 -2.04866193E-01
 -5.65664086E-03 -4.05305444E-01 -1.77007775E-01 -1.44582802E+00  6.07220144E+00
  2.14157117E-01  8.52123386E-02  0.00000000E+00 -4.62149821E-01 -1.32405951E+00
  0.00000000E+00 -1.15511891E-01  0.00000000E+00  0.00000000E+00  2.67628828E-02
  9.15252038E-02  3.27991659E-02  6.33501938E-01 -1.68505141E+00 -9.10355328E-02
 -4.40639757E-02  0.00000000E+00  7.73955832E-01  2.09997168E-01  0.00000000E+00
  1.41771357E-02  0.00000000E+00  0.00000000E+00 -4.62687397E-02 -6.50637629E-03
  5.82719557E-02  4.02750151E-01  1.32373943E+00 -3.38868179E+00 -1.64617333E-04
  6.12880970E-03  0.00000000E+00  2.66939407E-02  3.01098140E-02  0.00000000E+00
 -7.90038678E-01 -1.76285684E+00  0.00000000E+00  2.30945417E-01  0.00000000E+00
  0.00000000E+00  2.73867859E-01 -2.80743829E-01 -5.13937474E-01 -9.06790593E-01
 -2.72501646E-02  2.02994368E-01  1.37661056E-01 -5.13937474E-01 -9.06790593E-01
 -2.72501646E-02  2.02994368E-01 -1.37661056E-01  0.00000000E+00  0.00000000E+00
  0.00000000E+00  0.00000000E+00  0.00000000E+00  2.44236291E-01  0.00000000E+00
  0.00000000E+00  3.30216637E-01  0.00000000E+00 -1.47996795E-02  2.95946526E-02
  0.00000000E+00  0.00000000E+00  0.00000000E+00  0.00000000E+00  0.00000000E+00
  0.00000000E+00  0.00000000E+00  6.73007158E-02  0.00000000E+00  0.00000000E+00
  1.54477519E-01  0.00000000E+00 -2.01352308E-02  1.68189305E-03  0.00000000E+00
  0.00000000E+00  0.00000000E+00  0.00000000E+00  0.00000000E+00  0.00000000E+00
  0.00000000E+00  0.00000000E+00  3.07362249E-02  0.00000000E+00  0.00000000E+00
  1.01269061E-01  0.00000000E+00  0.00000000E+00  1.68809206E-01  0.00000000E+00
  1.50302259E-02  4.33269097E-02  0.00000000E+00  0.00000000E+00  1.77639802E-01
  1.40808730E-01  4.36011906E-02 -5.99553446E-02 -2.58300760E-03 -1.77639802E-01
 -1.40808730E-01 -4.36011906E-02  5.99553446E-02 -2.58300760E-03  0.00000000E+00
  0.00000000E+00  0.00000000E+00  0.00000000E+00  0.00000000E+00  5.47555586E-02
  0.00000000E+00  0.00000000E+00  1.25033781E-02  0.00000000E+00  3.31017699E-01
  2.00135311E-01  0.00000000E+00  0.00000000E+00  0.00000000E+00  0.00000000E+00
  0.00000000E+00  0.00000000E+00  0.00000000E+00  2.10259833E-01  0.00000000E+00
  0.00000000E+00  2.73949911E-01  0.00000000E+00 -7.26480305E-02  1.42862213E-02
  0.00000000E+00  0.00000000E+00  0.00000000E+00  0.00000000E+00  0.00000000E+00
  0.00000000E+00  0.00000000E+00  0.00000000E+00 -1.45287553E-01  0.00000000E+00
  0.00000000E+00 -2.87521388E-01  0.00000000E+00  0.00000000E+00 -2.71726745E-01
  0.00000000E+00 -1.30525286E-02 -6.83323775E-02  0.00000000E+00  0.00000000E+00
  7.74875207E-03 -1.28746939E-03  1.74751057E-01  9.63100805E-02 -8.95309014E-03
 -7.74875207E-03  1.28746939E-03 -1.74751057E-01 -9.63100805E-02 -8.95309014E-03
  0.00000000E+00  0.00000000E+00  0.00000000E+00  0.00000000E+00  0.00000000E+00
 -1.21003474E-01  0.00000000E+00  0.00000000E+00 -9.54112010E-03  0.00000000E+00
  3.17724053E-01 -2.81646183E-01  0.00000000E+00  0.00000000E+00  0.00000000E+00
  0.00000000E+00  0.00000000E+00  0.00000000E+00  0.00000000E+00  2.10864259E-01
  0.00000000E+00  0.00000000E+00  2.38645785E-01  0.00000000E+00 -6.63949838E-02
 -1.62919774E-02  0.00000000E+00  0.00000000E+00  0.00000000E+00  0.00000000E+00
  0.00000000E+00  0.00000000E+00  0.00000000E+00  0.00000000E+00  1.63024068E-01
  0.00000000E+00  0.00000000E+00  2.83505661E-01  0.00000000E+00  0.00000000E+00
  2.35887606E-01  0.00000000E+00  2.89675941E-02  3.28332442E-03  0.00000000E+00
  0.00000000E+00 -2.02337003E-01 -4.21813016E-02  4.97827350E-02  6.14206276E-03
  1.12834399E-01  2.02337003E-01  4.21813016E-02 -4.97827350E-02 -6.14206276E-03
  1.12834399E-01  0.00000000E+00  0.00000000E+00  0.00000000E+00  0.00000000E+00
  0.00000000E+00 -1.16744492E-01  0.00000000E+00  0.00000000E+00 -5.20714247E-02
  0.00000000E+00  9.86595441E-02  4.36163678E-01  0.00000000E+00  0.00000000E+00
  0.00000000E+00  0.00000000E+00  0.00000000E+00  0.00000000E+00  0.00000000E+00
 -1.31876831E-01  0.00000000E+00  0.00000000E+00 -1.24024814E-01  0.00000000E+00
 -1.90140562E-02  4.22641499E-02  0.00000000E+00  0.00000000E+00  0.00000000E+00
  0.00000000E+00  0.00000000E+00  0.00000000E+00  0.00000000E+00  0.00000000E+00
  2.67402298E-01  0.00000000E+00  0.00000000E+00  3.04164136E-01  0.00000000E+00
  0.00000000E+00  1.54904980E-01  0.00000000E+00 -1.03530833E-01 -2.47716156E-01
  0.00000000E+00  0.00000000E+00  7.45236174E-02  1.09885360E-02  1.24863766E-01
  2.65271702E-01 -5.96128582E-02 -7.45236174E-02 -1.09885360E-02 -1.24863766E-01
 -2.65271702E-01 -5.96128582E-02  0.00000000E+00  0.00000000E+00  0.00000000E+00
  0.00000000E+00  0.00000000E+00 -3.99394114E-01  0.00000000E+00  0.00000000E+00
  1.44412478E-01  0.00000000E+00 -5.44449385E-02 -5.18498143E-03  0.00000000E+00
  0.00000000E+00  0.00000000E+00  0.00000000E+00  0.00000000E+00  0.00000000E+00
  0.00000000E+00  1.14265191E-01  0.00000000E+00  0.00000000E+00  6.93965024E-02
  0.00000000E+00  1.02733908E-01 -3.09343882E-03  0.00000000E+00  0.00000000E+00
  0.00000000E+00  0.00000000E+00  0.00000000E+00  0.00000000E+00  0.00000000E+00
  0.00000000E+00 -1.06304451E-01  0.00000000E+00  0.00000000E+00 -8.80868170E-02
  0.00000000E+00  0.00000000E+00 -1.54367905E-02  0.00000000E+00 -7.41380761E-03
  2.05025055E-02  0.00000000E+00  0.00000000E+00  1.51019619E-01  1.60064342E-01
 -2.37768878E-01  2.44861653E-01  3.38450921E-01 -1.51019619E-01 -1.60064342E-01
  2.37768878E-01 -2.44861653E-01  3.38450921E-01  0.00000000E+00  0.00000000E+00
  0.00000000E+00  0.00000000E+00  0.00000000E+00 -2.82051339E-02  0.00000000E+00
  0.00000000E+00 -1.14484585E-01  0.00000000E+00 -2.76027686E-01  1.47706430E-01
  0.00000000E+00  0.00000000E+00  0.00000000E+00  0.00000000E+00  0.00000000E+00
  0.00000000E+00  0.00000000E+00  5.04871186E-01  0.00000000E+00  0.00000000E+00
  3.00135076E-01  0.00000000E+00  3.23337365E-01  1.57415661E-02  0.00000000E+00
  0.00000000E+00  0.00000000E+00  0.00000000E+00  0.00000000E+00  0.00000000E+00
  0.00000000E+00  0.00000000E+00  1.19377002E-01  0.00000000E+00  0.00000000E+00
  7.45548463E-02  0.00000000E+00  0.00000000E+00 -4.54325370E-03  0.00000000E+00
 -9.78891459E-02 -1.05060048E-01  0.00000000E+00  0.00000000E+00 -1.77133824E-02
 -6.48012642E-02 -2.16718484E-01 -3.37663328E-04 -2.61282794E-01  1.77133824E-02
  6.48012642E-02  2.16718484E-01  3.37663328E-04 -2.61282794E-01  0.00000000E+00
  0.00000000E+00  0.00000000E+00  0.00000000E+00  0.00000000E+00  1.24018543E-03
  0.00000000E+00  0.00000000E+00  8.99831935E-03  0.00000000E+00 -5.62155836E-03
  7.37497787E-05  0.00000000E+00  0.00000000E+00  0.00000000E+00  0.00000000E+00
  0.00000000E+00  0.00000000E+00  0.00000000E+00 -2.34548753E-02  0.00000000E+00
  0.00000000E+00 -2.83856357E-04  0.00000000E+00  2.55245189E-01  3.75171900E-01
  0.00000000E+00  0.00000000E+00  0.00000000E+00  0.00000000E+00  0.00000000E+00
  0.00000000E+00  0.00000000E+00  0.00000000E+00  3.20522350E-02  0.00000000E+00
  0.00000000E+00  4.57903003E-03  0.00000000E+00  0.00000000E+00 -1.85527038E-02
  0.00000000E+00  8.69384219E-01 -1.75012842E-01  0.00000000E+00  0.00000000E+00
  9.10849251E-04 -5.06440964E-03  4.11248565E-02  2.95236832E-02 -5.12597325E-03
 -9.10849251E-04  5.06440964E-03 -4.11248565E-02 -2.95236832E-02 -5.12597325E-03
  0.00000000E+00  0.00000000E+00  0.00000000E+00  0.00000000E+00  0.00000000E+00
 -1.23801517E-02  0.00000000E+00  0.00000000E+00 -7.24290859E-04  0.00000000E+00
  6.09530020E-03 -6.76685743E-03  0.00000000E+00  0.00000000E+00  0.00000000E+00
  0.00000000E+00  0.00000000E+00  0.00000000E+00  0.00000000E+00  8.94163397E-03
  0.00000000E+00  0.00000000E+00 -2.11658875E-04  0.00000000E+00 -6.18492526E-02
  9.11172680E-01  0.00000000E+00  0.00000000E+00  0.00000000E+00  0.00000000E+00
  0.00000000E+00  0.00000000E+00  0.00000000E+00  0.00000000E+00  2.21102292E-02
  0.00000000E+00  0.00000000E+00  3.16644380E-03  0.00000000E+00  0.00000000E+00
 -1.22406441E-02  0.00000000E+00 -3.25579249E-01  2.38833206E-01  0.00000000E+00
  0.00000000E+00 -1.90192442E-02  2.18134959E-03 -5.19733592E-03 -2.08680060E-02
  1.70580681E-02  1.90192442E-02 -2.18134959E-03  5.19733592E-03  2.08680060E-02
  1.70580681E-02  0.00000000E+00  0.00000000E+00  0.00000000E+00  0.00000000E+00
  0.00000000E+00 -5.84995277E-03  0.00000000E+00  0.00000000E+00  1.69887543E-02
  0.00000000E+00  3.12208771E-02 -3.90240661E-03  0.00000000E+00  0.00000000E+00
  0.00000000E+00  0.00000000E+00  0.00000000E+00  0.00000000E+00  0.00000000E+00
 -9.51651764E-02  0.00000000E+00  0.00000000E+00 -1.07982552E-02  0.00000000E+00
  7.26391776E-01 -1.20739194E-01  0.00000000E+00  0.00000000E+00  0.00000000E+00
  0.00000000E+00  0.00000000E+00  0.00000000E+00  0.00000000E+00  0.00000000E+00
  1.28329587E-01  0.00000000E+00  0.00000000E+00  1.33008418E-02  0.00000000E+00
  0.00000000E+00 -6.92758339E-02  0.00000000E+00 -9.51014048E-02  5.18470198E-01
  0.00000000E+00  0.00000000E+00 -2.61237312E-02 -1.32706922E-03  2.66839377E-01
  7.23419864E-02  5.27457964E-02  2.61237312E-02  1.32706922E-03 -2.66839377E-01
 -7.23419864E-02  5.27457964E-02  0.00000000E+00  0.00000000E+00  0.00000000E+00
  0.00000000E+00  0.00000000E+00 -3.29754932E-03  0.00000000E+00  0.00000000E+00
 -8.48340836E-03  0.00000000E+00 -2.83065774E-02  3.94510726E-02  0.00000000E+00
  0.00000000E+00  0.00000000E+00  0.00000000E+00  0.00000000E+00  0.00000000E+00
  0.00000000E+00  7.45692758E-02  0.00000000E+00  0.00000000E+00  1.05991789E-02
  0.00000000E+00 -4.32446980E-01 -9.26150437E-02  0.00000000E+00  0.00000000E+00
  0.00000000E+00  0.00000000E+00  0.00000000E+00  0.00000000E+00  0.00000000E+00
  0.00000000E+00  2.76905934E-01  0.00000000E+00  0.00000000E+00  2.28803082E-02
  0.00000000E+00  0.00000000E+00 -1.41836593E-01  0.00000000E+00  2.79531183E-01
  6.54508013E-01  0.00000000E+00  0.00000000E+00  1.78701134E-02 -3.66703238E-03
 -1.15150221E-01  2.40711177E-01 -1.85392229E-01 -1.78701134E-02  3.66703238E-03
  1.15150221E-01 -2.40711177E-01 -1.85392229E-01  0.00000000E+00  0.00000000E+00
  0.00000000E+00  0.00000000E+00  0.00000000E+00  3.34063418E-02  0.00000000E+00
  0.00000000E+00 -9.54936130E-03  0.00000000E+00 -2.26103386E-02 -2.13525287E-02
  0.00000000E+00  0.00000000E+00  0.00000000E+00  0.00000000E+00  0.00000000E+00
  0.00000000E+00  0.00000000E+00  2.80741646E-02  0.00000000E+00  0.00000000E+00
  2.80177169E-03  0.00000000E+00 -3.60746809E-02 -1.17762851E-02  0.00000000E+00
  0.00000000E+00  0.00000000E+00  0.00000000E+00  0.00000000E+00  0.00000000E+00
  0.00000000E+00  0.00000000E+00  8.11504184E-01  0.00000000E+00  0.00000000E+00
 -1.37335063E-01  0.00000000E+00  0.00000000E+00 -4.34984078E-01  0.00000000E+00
 -3.63414215E-02 -1.65695923E-01  0.00000000E+00  0.00000000E+00  9.42741602E-02
  1.69097473E-02 -1.51931684E-02 -2.21917310E-01  2.24248761E-01 -9.42741602E-02
 -1.69097473E-02  1.51931684E-02  2.21917310E-01  2.24248761E-01  0.00000000E+00
  0.00000000E+00  0.00000000E+00  0.00000000E+00  0.00000000E+00 -3.19554631E-01
  0.00000000E+00  0.00000000E+00 -1.51782806E-01  0.00000000E+00 -3.36770702E-01
  4.15110267E-01  0.00000000E+00  0.00000000E+00  0.00000000E+00  0.00000000E+00
  0.00000000E+00  0.00000000E+00  0.00000000E+00  5.64273269E-01  0.00000000E+00
  0.00000000E+00 -2.62802593E-01  0.00000000E+00 -2.39725954E-01 -4.01339888E-02
  0.00000000E+00  0.00000000E+00  0.00000000E+00  0.00000000E+00  0.00000000E+00
  0.00000000E+00  0.00000000E+00  0.00000000E+00 -1.81091964E-01  0.00000000E+00
  0.00000000E+00  1.77547607E-01  0.00000000E+00  0.00000000E+00  9.58346090E-02
  0.00000000E+00  1.49004431E-01  2.33615021E-01  0.00000000E+00  0.00000000E+00
  6.50462159E-02 -7.02927854E-02  3.30167307E-01 -3.08002541E-01  2.38225028E-01
 -6.50462159E-02  7.02927854E-02 -3.30167307E-01  3.08002541E-01  2.38225028E-01
  0.00000000E+00  0.00000000E+00  0.00000000E+00  0.00000000E+00  0.00000000E+00
 -5.16123813E-01  0.00000000E+00  0.00000000E+00  1.13572522E-01  0.00000000E+00
  1.73207034E-01  6.20930246E-01  0.00000000E+00  0.00000000E+00  0.00000000E+00
  0.00000000E+00  0.00000000E+00  0.00000000E+00  0.00000000E+00 -6.28061520E-01
  0.00000000E+00  0.00000000E+00  6.32134792E-01  0.00000000E+00  3.44168227E-04
 -4.54609881E-02  0.00000000E+00  0.00000000E+00  0.00000000E+00  0.00000000E+00
  0.00000000E+00  0.00000000E+00  0.00000000E+00  0.00000000E+00 -2.27221811E-02
  0.00000000E+00  0.00000000E+00  2.11243325E-02  0.00000000E+00  0.00000000E+00
  7.97168952E-02  0.00000000E+00  9.98945014E-02  2.29419785E-01  0.00000000E+00
  0.00000000E+00 -1.30176888E-01  1.14730935E-02 -2.00807423E-01 -4.28319750E-01
 -5.25062759E-02  1.30176888E-01 -1.14730935E-02  2.00807423E-01  4.28319750E-01
 -5.25062759E-02  0.00000000E+00  0.00000000E+00  0.00000000E+00  0.00000000E+00
  0.00000000E+00  5.36743235E-01  0.00000000E+00  0.00000000E+00 -3.09557647E-01
  0.00000000E+00  7.92164480E-01  3.41198734E-01  0.00000000E+00  0.00000000E+00
  0.00000000E+00  0.00000000E+00  0.00000000E+00  0.00000000E+00  0.00000000E+00
  1.67166112E-01  0.00000000E+00  0.00000000E+00 -3.81724377E-01  0.00000000E+00
  2.33669529E-01 -2.72400635E-02  0.00000000E+00  0.00000000E+00  0.00000000E+00
  0.00000000E+00  0.00000000E+00  0.00000000E+00  0.00000000E+00  0.00000000E+00
 -2.65497580E-01  0.00000000E+00  0.00000000E+00  5.89274599E-01  0.00000000E+00
  0.00000000E+00 -2.89919020E-01  0.00000000E+00  5.53272700E-02  2.09239703E-01
  0.00000000E+00  0.00000000E+00  2.16308718E-01 -1.45639811E-01 -4.85488178E-01
 -1.69205309E-01  2.00749510E-01 -2.16308718E-01  1.45639811E-01  4.85488178E-01
  1.69205309E-01  2.00749510E-01  0.00000000E+00  0.00000000E+00  0.00000000E+00
  0.00000000E+00  0.00000000E+00  9.98593432E-02  0.00000000E+00  0.00000000E+00
 -1.88271643E-01  0.00000000E+00 -5.64240491E-01 -2.79125645E-01  0.00000000E+00
  0.00000000E+00  0.00000000E+00  0.00000000E+00  0.00000000E+00  0.00000000E+00
  0.00000000E+00 -3.67952363E-01  0.00000000E+00  0.00000000E+00  7.01810630E-01
  0.00000000E+00 -1.60778522E-01  1.56790379E-02  0.00000000E+00  0.00000000E+00
  0.00000000E+00  0.00000000E+00  0.00000000E+00  0.00000000E+00  0.00000000E+00
  0.00000000E+00 -3.56752135E-01  0.00000000E+00  0.00000000E+00  9.20326730E-01
  0.00000000E+00  0.00000000E+00 -8.15390919E-01  0.00000000E+00 -2.78578495E-02
 -9.22000094E-02  0.00000000E+00  0.00000000E+00  1.70746158E-01 -1.73699049E-01
  1.96772959E-01  1.46087837E-01  1.52336731E-01 -1.70746158E-01  1.73699049E-01
 -1.96772959E-01 -1.46087837E-01  1.52336731E-01  0.00000000E+00  0.00000000E+00
  0.00000000E+00  0.00000000E+00  0.00000000E+00 -6.07115778E-01  0.00000000E+00
  0.00000000E+00  7.50233478E-01  0.00000000E+00  2.53288536E-01 -1.46941754E-01
  0.00000000E+00  0.00000000E+00  0.00000000E+00  0.00000000E+00  0.00000000E+00
  0.00000000E+00  0.00000000E+00  2.59804292E-01  0.00000000E+00  0.00000000E+00
 -6.34431060E-01  0.00000000E+00  7.47087836E-02 -6.81662109E-03  0.00000000E+00
  0.00000000E+00  0.00000000E+00  0.00000000E+00  0.00000000E+00  0.00000000E+00
  0.00000000E+00  0.00000000E+00 -1.83901100E-01  0.00000000E+00  0.00000000E+00
  6.28211533E-01  0.00000000E+00  0.00000000E+00 -9.48969760E-01  0.00000000E+00
 -5.29414667E-02 -1.56721086E-01  0.00000000E+00  0.00000000E+00 -3.92488713E-01
  7.51291880E-01  4.08772256E-02 -1.86472949E-01 -4.70369019E-01  3.92488713E-01
 -7.51291880E-01 -4.08772256E-02  1.86472949E-01 -4.70369019E-01  0.00000000E+00
  0.00000000E+00  0.00000000E+00  0.00000000E+00  0.00000000E+00 -1.30983459E+00
  0.00000000E+00  0.00000000E+00  2.58313624E-01  0.00000000E+00  7.46578860E-01
 -9.18936249E-01  0.00000000E+00  0.00000000E+00  0.00000000E+00  0.00000000E+00
  0.00000000E+00  0.00000000E+00  0.00000000E+00  2.79315638E-02  0.00000000E+00
  0.00000000E+00 -1.65641803E-01  0.00000000E+00  8.56379357E-02  3.67606427E-02
  0.00000000E+00  0.00000000E+00  0.00000000E+00  0.00000000E+00  0.00000000E+00
  0.00000000E+00  0.00000000E+00  0.00000000E+00  5.83738024E-03  0.00000000E+00
  0.00000000E+00 -1.71798306E-02  0.00000000E+00  0.00000000E+00  4.26497857E-04
  0.00000000E+00 -6.10634232E-02 -3.44006156E-02  0.00000000E+00  0.00000000E+00
  1.31379485E+00 -7.66978260E-01  1.74990899E-01 -2.71675334E-01 -6.80454566E-01
 -1.31379485E+00  7.66978260E-01 -1.74990899E-01  2.71675334E-01 -6.80454566E-01
  0.00000000E+00  0.00000000E+00  0.00000000E+00  0.00000000E+00  0.00000000E+00
  2.21603437E-01  0.00000000E+00  0.00000000E+00  3.51465805E+00  0.00000000E+00
 -4.36165787E-01  7.38535338E-01  0.00000000E+00  0.00000000E+00  0.00000000E+00
  0.00000000E+00  0.00000000E+00  0.00000000E+00  0.00000000E+00  1.71001710E-01
  0.00000000E+00  0.00000000E+00 -6.62395934E-01  0.00000000E+00  3.38534598E-02
 -1.16691834E-02  0.00000000E+00  0.00000000E+00  0.00000000E+00  0.00000000E+00
  0.00000000E+00  0.00000000E+00  0.00000000E+00  0.00000000E+00 -1.10215942E-02
  0.00000000E+00  0.00000000E+00  7.04392343E-02  0.00000000E+00  0.00000000E+00
 -5.32248872E-01  0.00000000E+00 -1.05015939E-01 -1.84666418E-01  0.00000000E+00
  0.00000000E+00 -9.27495823E-01 -2.33221181E+00 -3.03193504E-01  3.66456685E-01
  4.23803666E-01  9.27495823E-01  2.33221181E+00  3.03193504E-01 -3.66456685E-01
  4.23803666E-01
Total SCF Density                          R   N=        1596
  2.05576527E+00 -9.92429867E-02  3.53935223E-01 -1.17002195E-01  1.98633574E-01
  1.29089040E-01  1.49068831E-02 -2.04453512E-02 -6.97735479E-02  3.06419468E-01
 -9.38489699E-03  1.63758042E-02 -1.16379291E-02 -2.32797191E-02  3.58356568E-01
  8.48714913E-34 -1.50013014E-33  1.35690563E-33  1.17587102E-33 -3.42907861E-32
  4.71991917E-01  1.80689255E-02 -3.07892263E-02 -2.88384892E-02  6.37659096E-02
 -1.25831517E-03 -4.86025254E-34  2.21526148E-02 -9.07247226E-04  6.38097879E-03
 -7.02490112E-03  3.27451879E-04  1.26790944E-01  1.77432245E-33  5.51198464E-03
  5.39183817E-02  2.46901995E-35 -5.05815505E-34  7.73255058E-34 -2.51360121E-34
 -1.21565712E-32  1.40901986E-01 -6.05084402E-34 -5.19049172E-33  5.17770925E-02
  4.80245301E-03 -7.22516000E-03 -1.10486371E-03 -1.75602275E-02  1.87437617E-02
 -1.20988222E-33 -2.74856501E-03  5.45149371E-03 -1.99344736E-34  2.47958982E-03
  2.00915714E-34 -2.00021125E-34 -9.92315769E-35  5.04799670E-34  7.73186919E-34
 -1.04590768E-02  7.47275624E-35 -2.25411331E-34  2.06240799E-03  8.51578690E-35
  3.71310936E-03  4.16347963E-34 -3.47976965E-34 -6.83889634E-34  1.46645880E-33
  2.39777136E-33  1.04278814E-02  1.22544324E-34  7.43984218E-34  1.65425681E-03
 -1.78662059E-34 -4.40558598E-05  1.75508691E-03  7.60220399E-04  1.71693203E-03
 -6.27875777E-03  2.78778095E-02  1.10179340E-02 -9.52367595E-35  3.25106227E-03
  3.85843443E-03 -2.79454355E-35 -1.54413917E-03 -1.65310806E-37  3.42490574E-34
  4.91555454E-03 -2.22182501E-03  2.17371466E-03  1.28334692E-03 -5.90106841E-03
 -8.84676182E-03 -1.67676759E-34 -8.38967336E-04  2.09820607E-03  2.02649110E-35
 -9.06704085E-04 -3.92081117E-34 -1.11856572E-34 -2.70748646E-04  4.60552770E-03
  2.85502602E-03  2.20717025E-03  2.20949522E-02 -2.21397207E-02  2.16531228E-03
 -1.31313368E-34 -4.18304867E-03  1.56454753E-04 -5.77112264E-37  5.72881816E-03
 -5.07167190E-36 -4.55150787E-34 -8.91233810E-03  2.54447002E-04  2.09487132E+00
 -2.11088510E-03 -1.29135245E-02 -2.97637117E-02  5.57708376E-02 -6.87906368E-03
  4.67417162E-34  2.13162816E-02 -3.38644645E-03  2.51276483E-34 -1.28980975E-02
 -2.10970115E-36  1.09592578E-33  2.08118486E-02 -4.58662908E-04 -1.90937942E-01
  4.99053853E-01  7.98845878E-03 -4.76764021E-02 -4.20279028E-02  1.07164938E-03
  2.34285736E-03 -2.28407228E-34  1.05888022E-02 -3.75473797E-03  3.23603672E-34
 -1.00012135E-02 -7.91873444E-35  1.13314438E-33  1.91171314E-02  3.45755121E-04
 -2.77942919E-01  5.51393008E-01  6.29581332E-01  6.65659458E-02 -1.69423817E-01
 -2.14742709E-02 -3.82802243E-01  3.76882201E-02  3.46223619E-35 -5.00671639E-02
  5.48450129E-03 -3.00099088E-34  2.60435251E-02 -3.02816308E-34 -1.81977994E-33
 -3.78147162E-02  3.97639209E-03 -3.13127895E-02  5.93196906E-02  1.58558412E-01
  6.44545375E-01  7.08681909E-03 -1.28639983E-02 -2.74487822E-02  2.71218409E-02
  4.93148140E-02 -1.26395148E-34  4.34823092E-02  1.04595382E-01  1.09556560E-33
 -5.75283833E-03 -5.15865476E-33 -5.51974679E-34  3.76704659E-04  5.38905794E-02
  1.59732406E-03 -3.56038456E-04 -1.88409248E-02  1.84188429E-03  8.87609392E-01
 -9.09330341E-34  1.81823391E-33  2.70677063E-33 -1.28090718E-33 -4.85993754E-33
 -1.00372553E-02 -3.99782182E-33 -1.00509847E-32  8.70007414E-02  3.32083779E-34
  5.56400884E-02 -3.75263986E-03 -1.44668614E-34  7.13597718E-34 -4.51944122E-35
 -1.70467726E-34  1.26016230E-33 -2.39994623E-33 -8.51397156E-32  9.10341875E-01
  4.06567650E-02 -9.56978865E-02 -1.06038647E-02 -2.23682659E-01  1.87417430E-02
  8.73341928E-35 -2.73831943E-02  2.76819829E-03 -1.81884717E-34  1.46092067E-02
 -1.83768206E-34 -1.10745446E-33 -2.21092687E-02  2.40777666E-03 -2.32315964E-02
  5.90088530E-02  1.18571182E-01  3.84246355E-01  7.55690708E-03 -2.10874515E-33
  2.30745079E-01  4.26061517E-03 -8.72781222E-03 -1.67550234E-02  1.70635486E-02
  1.46509418E-02 -3.18829150E-34  2.88731645E-02  6.36015883E-02  6.64002814E-34
 -4.67649899E-03 -3.49907357E-33 -5.10925652E-34 -6.01730841E-04  3.66004507E-02
  1.08576199E-03 -4.05523840E-04 -1.30640529E-02  2.26224001E-03  5.93034515E-01
  7.69835276E-33  5.90231517E-03  3.97195536E-01 -5.48889631E-34  1.16721036E-33
  1.64360293E-33 -8.65050021E-34 -1.46986464E-33 -2.53187691E-02 -2.67485932E-33
 -6.10977364E-33  5.27296013E-02  2.52660547E-34  3.77927203E-02 -2.77852428E-03
 -9.53728111E-35  4.85492837E-34 -2.40040611E-35 -1.64649231E-34  8.44016016E-34
 -1.54239221E-33 -5.69058413E-32  6.11339384E-01 -1.36203801E-33 -3.81166118E-32
  4.11290917E-01  2.60209495E-03 -4.42065622E-03 -1.32295875E-03 -5.91790121E-03
  7.22058180E-04 -9.04576920E-35 -8.41581578E-04  5.57914736E-05 -2.36041982E-35
  5.10332514E-04 -2.31961755E-36 -3.17087392E-35 -6.23192937E-04  3.74281874E-05
  1.08074402E-03 -1.96992389E-03 -5.36758033E-04  9.94171608E-03 -5.81979896E-04
 -4.65208868E-36  5.72346302E-03 -3.89080530E-04 -1.09984988E-37  1.84634768E-04
 -1.37854328E-35  3.07635343E-35 -5.72666148E-35  3.88348615E-35  6.12487613E-34
 -7.38327586E-03  7.60304218E-35  3.78400733E-34 -3.90386466E-03  2.69145115E-35
 -8.81947382E-04 -9.49333958E-05  2.55821734E-35  7.77084585E-35  4.57780300E-36
 -1.09548856E-35 -3.69137091E-35  3.39716667E-37  1.71640916E-33 -1.70210024E-02
  6.10895308E-36  1.11984370E-33 -1.11322146E-02  5.83409393E-37  4.39719304E-04
 -2.71230177E-34  4.50090420E-34  1.42026770E-34  5.39887286E-34 -1.50594376E-35
  8.91038859E-04  5.21588979E-35 -3.36735224E-36  2.65873823E-04 -5.26061843E-35
  1.37218460E-05  6.50459935E-05  6.56875433E-35 -9.13230774E-36 -9.04688888E-35
  1.51533351E-34  2.37648780E-35 -9.74893968E-34 -8.86571504E-35  3.26631677E-04
 -5.68507612E-34 -6.26559891E-35  1.88778140E-04 -1.78014455E-35 -2.04132764E-05
  3.25686962E-06 -4.71535449E-03  7.89669299E-03  2.46443392E-03  9.91982066E-03
 -9.12375740E-04  1.42472675E-35  1.12794867E-03 -2.17423639E-04  1.01178909E-35
 -8.44682646E-04  1.54854896E-35  5.02468634E-35  1.13916568E-03 -1.54966745E-04
 -1.73133395E-03  3.01756031E-03  6.52444625E-04 -1.73964414E-02 -1.14178770E-03
  5.45988549E-35 -1.00929659E-02 -7.88224065E-04  3.60220911E-35 -3.15979019E-04
 -2.96644300E-36  3.08309315E-35  5.51636276E-04  2.59280830E-04 -5.12948937E-04
  5.35907120E-04 -6.38772275E-04 -6.36804048E-03 -9.60481813E-35 -8.15792050E-04
 -3.93858494E-03 -5.00769102E-35 -1.25703859E-04  7.79883126E-35 -3.10756510E-35
 -2.50569222E-04 -9.17778829E-04 -7.90372308E-06  4.65970542E-05  3.72546964E-04
  4.15671623E-04 -1.78423156E-02 -2.15465365E-34  1.80447514E-04 -1.16391821E-02
 -1.40834703E-34  1.74357934E-05 -3.68588116E-35 -1.41481206E-37  4.51664208E-06
  4.42235049E-04 -2.21855607E-04 -7.08788875E-04 -8.50510928E-03 -1.40898712E-03
 -8.77699172E-03  8.46688563E-34  1.66106001E-03  2.05652582E-03 -2.02977388E-34
 -1.51981495E-03 -1.83347223E-34 -2.92744291E-34 -1.87200502E-03  2.01047845E-03
  2.36487741E-04 -6.55834855E-04  8.59157591E-04  1.85645580E-03  6.53119669E-03
 -6.32830907E-34  6.38736551E-04  4.32797016E-03 -4.17312253E-34  2.09976702E-05
 -1.96681478E-36 -1.38158088E-36 -2.89515771E-05  2.11114346E-05  2.17493437E+00
  6.20443022E-04  8.93561900E-04  3.24031240E-02  3.47632055E-03  2.34791515E-02
 -2.26394921E-33 -6.38119307E-03 -1.12192118E-02  1.09808049E-33  5.10492414E-03
  6.18865233E-34  9.68225117E-34  6.12977697E-03 -6.77879996E-03  1.58082799E-04
  1.09273522E-03 -4.68556876E-03 -4.30266110E-03 -2.21399761E-02  2.13835512E-33
 -7.37922319E-04 -1.40826709E-02  1.35325791E-33 -4.33853129E-05 -1.84087904E-36
 -2.26406746E-36  8.73180802E-06  1.97800073E-05 -6.39296976E-01  2.33923858E+00
 -5.24477201E-06 -1.43094340E-02 -3.01325150E-02 -8.34218704E-03 -5.99034571E-02
  5.77430127E-33  7.31583669E-03 -7.20601303E-03  6.65915858E-34 -8.06044892E-03
 -9.94249568E-34 -1.52951558E-33 -9.67985883E-03  1.08816379E-02  2.88590575E-03
 -4.88467212E-03 -6.18284282E-04  1.47258105E-02  4.35145826E-02 -4.22441321E-33
  7.32830768E-03  3.06289344E-02 -2.96299399E-33  8.57159493E-05  2.56404633E-36
 -5.86215416E-35 -6.73831157E-04 -4.27935931E-06  6.14520640E-02 -2.10230235E-01
  5.45466437E-01  2.04674093E-02 -4.20724401E-02 -6.28153165E-02  2.52579507E-02
  2.66757049E-02 -2.64567378E-33  1.95095759E-02  2.91845581E-02 -2.86647728E-33
 -5.77257459E-03 -9.67600962E-34 -8.23526315E-34 -4.00593241E-03  1.03522370E-02
 -6.16640397E-03  8.56227398E-03  1.24742984E-02 -6.12642192E-03  9.22986648E-02
 -8.83151803E-33 -5.59289410E-03  5.83400989E-02 -5.57628729E-33 -1.18199690E-04
  2.19088223E-34 -3.65692807E-35 -3.76687197E-04 -2.26823556E-03  1.08868780E-01
 -3.93244113E-01  5.66242256E-01  6.32556558E-01  1.22321211E-02 -2.91748451E-02
 -3.13858706E-02  1.58590893E-03  5.85109753E-02 -3.32433635E-35 -2.23249943E-02
  1.42858812E-02  2.58804913E-35  9.24177751E-04 -4.59637524E-34  1.52491411E-33
  1.53770005E-02  4.22002676E-03 -6.50662121E-03  1.40844102E-02  3.45190625E-02
 -3.64389410E-02 -3.45221091E-02 -1.35625082E-35 -2.90383797E-02 -2.77584408E-02
 -1.27934677E-35  1.84271700E-04  4.04272296E-35  6.13872839E-35  4.89775182E-04
 -4.42938804E-04  1.52670801E-03 -7.30243510E-03  6.73619336E-03  2.54525569E-02
  2.12873119E+00  2.09392639E-02 -4.79575176E-02 -4.59556317E-02  4.81283895E-02
  1.45859787E-01  1.21360867E-34  2.32747494E-02  4.91972575E-02 -9.44813799E-35
  7.89516382E-03  1.24463525E-33  1.02815626E-33  4.48607501E-03 -1.33019659E-02
  3.51190998E-05  3.08985930E-04 -4.98492074E-03 -1.00307410E-02 -4.22599637E-02
  4.95123710E-35 -6.34673576E-03 -3.65192776E-02  4.67048507E-35  1.36159151E-05
  1.26621540E-34 -1.13998170E-35 -1.76041652E-04 -1.31412111E-03  4.06886598E-03
 -1.78757098E-02  2.05010586E-02  6.88711464E-02 -1.58348414E-02  2.09524008E+00
 -2.05054287E-33  4.70038913E-33  4.51600874E-33 -4.62161311E-33 -1.41916902E-32
  9.63747436E-03 -2.15534569E-33 -4.76793865E-33 -7.50292827E-03 -1.81829342E-33
  4.15088668E-03  1.53364504E-02 -2.07443804E-34 -6.30869713E-37  1.90754628E-35
 -7.82183553E-35  3.59049616E-34  1.08777135E-33  4.17236389E-33  3.93186222E-03
  7.08899621E-34  3.59842643E-33  3.70891222E-03 -5.51661047E-35 -2.00658500E-04
  4.70811153E-04 -5.23658836E-36 -4.15082149E-36 -3.95523726E-34  1.73970353E-33
 -1.98955567E-33 -6.69344035E-33 -5.82404569E-33 -2.00906336E-31  2.13787973E+00
 -2.79868796E-02  6.80305148E-02  7.29799330E-02 -3.65340435E-03 -1.38355179E-01
  9.67741387E-35  5.58194960E-02 -3.16624140E-02 -5.90172333E-35 -1.40031492E-03
  1.09473786E-33 -3.50541552E-33 -3.58900858E-02 -1.00940378E-02  1.58019714E-02
 -3.42970167E-02 -8.33101959E-02  8.89174692E-02  9.13613431E-02  3.09508723E-35
  7.03632431E-02  7.10201255E-02  2.93264950E-35 -4.33672347E-04 -8.59884004E-35
 -1.61260062E-34 -1.33090014E-03  9.53392755E-04 -3.70661364E-03  1.76515957E-02
 -1.55096963E-02 -5.84138128E-02 -3.18917636E-01  3.82521320E-02  1.17514708E-33
  8.08033642E-01 -4.59121940E-02  1.08666283E-01  1.01244648E-01 -1.10626418E-01
 -3.47034240E-01 -3.53291367E-34 -5.33761678E-02 -1.14233417E-01  2.15453006E-34
 -1.73551373E-02 -2.82736020E-33 -2.16394638E-33 -8.82592952E-03  3.01561232E-02
 -5.88128227E-04 -1.61245757E-04  1.36973409E-02  2.29497078E-02  1.06919715E-01
 -1.12991716E-34  1.39353652E-02  9.03913201E-02 -1.07061635E-34 -2.71472474E-05
 -2.84747923E-34  1.32996171E-35  2.64899253E-04  2.95984874E-03 -9.99519554E-03
  4.38447901E-02 -4.79555029E-02 -1.61216393E-01  3.84421315E-02 -2.36548533E-01
 -4.29008538E-33 -9.15733394E-02  6.08128560E-01  4.50011807E-33 -1.06571828E-32
 -9.96242323E-33  1.06231239E-32  3.37623677E-32 -2.80554728E-02  4.92693039E-33
  1.10656962E-32  1.71094924E-02  4.33513731E-33 -9.53510560E-03 -3.65709431E-02
  4.93413539E-34  6.07550022E-36  1.90210760E-36  1.33769208E-34 -1.02638536E-33
 -2.50788808E-33 -1.05701411E-32 -8.97286577E-03 -1.57929392E-33 -8.91468688E-33
 -8.50194789E-03  1.36813571E-34  5.82815941E-04 -1.16906287E-03  1.27111851E-35
  1.13717168E-35  9.71455659E-34 -4.26617659E-33  4.65305953E-33  1.56642546E-32
 -2.58703389E-33  2.25561551E-32 -3.40683031E-01  5.99586277E-33 -5.80116194E-32
  8.59128518E-01 -1.49754724E-02  3.93556728E-02  4.47347365E-02 -1.02873277E-03
 -6.41337133E-02  1.48074248E-34  4.21982726E-02 -1.12261474E-02 -1.89328000E-35
  1.09218368E-03  9.83780540E-34 -2.27432128E-33 -2.48460228E-02 -9.38612332E-03
  8.96693319E-03 -2.25792910E-02 -5.64571686E-02  7.11934337E-02  5.93731017E-02
  4.88128530E-35  5.46708490E-02  4.49919591E-02  3.61886150E-35 -1.53599248E-04
 -2.38393966E-35 -1.27631694E-34 -1.20811875E-03  2.95189701E-04 -2.20956077E-03
  9.78079860E-03 -1.77669397E-02 -3.86525331E-02 -2.42878897E-01  4.65049242E-02
  9.37680743E-34  5.75002921E-01 -1.12490070E-01 -2.22374955E-33  4.13526280E-01
 -1.48216980E-02  4.37770970E-02  4.35661172E-02 -5.25946320E-02 -1.92654852E-01
 -5.40571627E-34 -2.88275704E-02 -5.89043211E-02  6.91175854E-35 -1.05513577E-02
 -1.99519439E-33 -9.85253321E-34 -1.82255524E-03  2.10867368E-02 -4.81469570E-03
  8.76109380E-03  1.89179988E-02  4.59288887E-03  1.12874257E-01 -1.78200083E-34
  2.44194435E-03  8.59103244E-02 -1.32113036E-34 -2.71042237E-05 -5.60435871E-35
  1.13234329E-35  1.58646207E-04  5.79173621E-04 -5.01074859E-03  2.12755693E-02
 -4.28469075E-02 -1.01650365E-01  4.10339484E-02 -1.56123319E-01 -3.42317189E-33
 -9.84912307E-02  3.63660187E-01  8.11819695E-33 -9.76046338E-02  2.25127258E-01
  1.47325107E-33 -4.33454967E-33 -4.33286840E-33  5.04806233E-33  1.86993446E-32
 -4.29277191E-02  2.61938333E-33  5.68841893E-33  5.48874589E-03  3.30040750E-33
 -7.13741026E-03 -2.78440836E-02  3.75249106E-34  6.16641842E-36  4.30861948E-34
 -7.62418927E-34 -1.61974125E-33 -6.86091769E-34 -1.10309199E-32 -1.41511740E-02
 -4.22795265E-34 -8.39511954E-33 -1.04913226E-02  1.06710330E-34  9.28266753E-04
 -9.19825747E-04  8.38104856E-36  1.48621261E-35  4.88218022E-34 -2.07434340E-33
  4.17086445E-33  9.88292840E-33 -3.09790999E-33  1.48138570E-32 -2.71839946E-01
  7.46319188E-33 -3.44917517E-32  6.44679930E-01  7.93515081E-33 -2.12559756E-32
  4.84976624E-01  6.06875801E-03 -1.33178660E-02 -9.52795940E-03  5.25170925E-03
  1.75352061E-02 -3.21864831E-33  2.43515277E-03  6.34085616E-03 -9.46390586E-34
  9.83277173E-04  2.16224602E-34  1.88425154E-34  9.48043146E-04 -7.17095976E-04
  1.79046355E-05  4.73910955E-04  1.11021419E-03  1.67233364E-03  3.73242339E-03
  9.63822583E-34  6.96315922E-04  1.54125502E-03  7.83602962E-34  1.05598658E-04
  6.50019325E-35 -1.17646504E-35 -1.83970178E-04 -3.23479252E-04 -8.28689320E-04
  2.67369237E-03 -4.56961608E-03  1.45955900E-03  3.16706517E-03  9.85810913E-03
  8.72538613E-34 -7.96786949E-03 -2.45815571E-02 -2.22109743E-33 -3.46386208E-03
 -1.28862598E-02 -1.52123685E-33  1.54133173E-03  6.48574144E-34 -1.44368540E-33
 -9.44078487E-34 -4.33707885E-34  2.38497942E-33  7.66031415E-03 -9.23981438E-35
  8.11098359E-34  2.82013823E-03  1.79748462E-34 -7.06862875E-05 -1.61781192E-04
  1.20185530E-34 -1.18364189E-35 -2.99091359E-35  1.83268917E-34  5.76559423E-34
  1.20573047E-33  3.69223946E-34  2.85901613E-03  6.38695917E-34  1.19489667E-34
  1.58533162E-03  2.97380711E-35 -1.77190273E-04  5.73816762E-06 -4.56236968E-35
 -4.42688493E-35 -9.00488488E-35  2.84594386E-34 -4.85707953E-34  1.78991881E-34
  1.20241346E-33  7.84546946E-34 -2.79387401E-03 -3.02195002E-33 -1.95144156E-33
  7.12022673E-03 -1.92056353E-33 -8.81156444E-34  4.94902376E-03  9.77693988E-35
  2.01859863E-04  1.27846331E-33 -2.75425339E-33 -2.05312250E-33  2.03419075E-33
  2.84211407E-33  2.71425103E-02  7.10894686E-34  9.36451104E-34  7.97122839E-03
  1.62651395E-34 -1.29242246E-03 -2.19898873E-04  2.23163569E-34 -2.77968357E-34
 -2.83777130E-35  1.39681458E-34  4.42487296E-35 -8.03353097E-34 -6.18184613E-34
 -8.21476127E-03 -5.15350357E-34 -5.78020067E-34 -6.66625893E-03  1.13815668E-36
 -2.81295786E-04  2.20886373E-05 -5.66963639E-36 -3.25000095E-35 -1.54578551E-34
  5.00521152E-34 -8.40477392E-34  2.78199133E-34  2.26558930E-34  2.15465933E-33
 -7.34592003E-03 -5.54341763E-34 -5.37393200E-33  1.86993243E-02  3.54211961E-35
 -2.96198699E-33  1.28060071E-02  4.82040867E-35  5.94682872E-04  2.10242375E-03
  8.64664882E-03 -1.84329265E-02 -1.40813171E-02  1.75164841E-02  1.59218788E-02
 -3.68218170E-34  5.66225478E-03  4.82624462E-03 -1.10106240E-34  6.19913874E-04
  2.21640436E-34  1.99435169E-34  1.51342191E-03 -2.20591976E-03 -2.97334706E-04
  1.04045652E-03 -5.64238484E-04 -1.00352675E-02 -9.29522825E-03  9.35833601E-35
 -6.11277836E-03 -7.18666019E-03  7.84771173E-35 -5.50504076E-05  8.69424861E-36
  4.18655920E-36  8.51134856E-05 -4.92608624E-05 -9.71936013E-04  3.15669911E-03
 -5.23956003E-03  1.76609449E-03 -3.99220867E-04  1.49577252E-02  1.02141386E-34
  1.16613109E-03 -3.73120528E-02 -2.60033531E-34  3.61234820E-03 -2.11211712E-02
 -1.78332024E-34  1.91165610E-03  1.27421346E-34  4.22441673E-34  3.25185147E-03
 -7.19907679E-03  1.59914585E-02  1.05473123E-02  3.78288272E-03 -2.58027498E-02
  2.83829834E-36  7.09154789E-04 -8.76182539E-03  8.01703573E-36 -1.71624738E-03
 -9.05973563E-36 -2.47023724E-34 -1.30339730E-03  2.14167914E-04  3.22157276E-04
 -1.95803974E-03 -6.01402921E-03 -1.22448915E-02 -3.59277597E-03  6.43383263E-35
 -6.45373102E-03 -1.01935532E-03  4.29579443E-35 -3.13646769E-04 -4.51310545E-35
  2.27621293E-35  4.82055395E-04  4.46569892E-04  9.91019739E-04 -3.13625300E-03
  5.34735776E-03 -1.96000913E-03 -1.25878915E-02 -8.92239357E-03 -9.84323042E-36
  3.16306724E-02  2.21982151E-02  2.51609958E-35  1.99660065E-02  1.02141898E-02
  1.81482262E-35 -1.85605755E-03 -2.97320743E-34 -2.91200177E-34 -1.57048633E-03
  3.20003184E-03 -8.10657424E-02  1.70095942E-01  1.04677557E-01 -9.62667528E-02
  1.48669270E-01  3.18288237E-01 -3.04389934E-02  4.60783551E-02  8.41751006E-02
  8.86005909E-03 -1.21659342E-02  9.57157228E-03 -3.02890745E-03 -4.71823527E-03
  5.56622365E-03 -1.97200826E-02 -1.78566759E-02  3.96893572E-02 -4.33026282E-02
 -1.00248884E-01  2.37410682E-02 -3.57035311E-02 -7.95929479E-02 -1.88153043E-04
 -3.21232353E-03  6.32660494E-04  7.00424195E-04 -1.50161614E-03 -3.18132704E-03
  7.98861517E-03 -2.83224785E-02 -1.84413592E-02 -8.86273956E-05  2.90034642E-02
  2.76405119E-02 -9.13078223E-04 -7.43381887E-02 -6.97861287E-02  9.08784264E-03
 -5.58603553E-02 -6.62330484E-02 -6.78318092E-04  4.39532129E-03  1.78645457E-02
 -5.51071026E-03 -2.86309446E-03  3.88575662E-01 -2.67420666E-03  1.48733760E-02
  1.01665400E-02 -3.12421542E-02  6.55175199E-02  1.24756866E-01 -6.33772910E-03
  1.78393268E-02  2.49489322E-02  4.90290164E-03 -8.48750339E-03  5.73678260E-03
 -9.84462774E-04 -4.78212320E-03 -3.66006608E-03  5.36909337E-03  1.21006963E-02
  4.07908415E-02 -4.49614813E-02 -1.07881179E-01  2.40495654E-02 -3.32981598E-02
 -7.70562789E-02  5.22222698E-04  3.71885198E-05  2.75063488E-04 -7.60255294E-04
 -7.85906729E-05 -6.01875468E-04  9.30512771E-04 -1.57546260E-03  8.98332492E-03
  2.44822365E-03  2.94490609E-02  2.79460479E-02 -6.13925750E-03 -7.01277210E-02
 -6.75725625E-02  2.52936958E-03 -4.52024697E-02 -5.54902325E-02  2.23862671E-03
  1.13183644E-03  6.61175724E-03  1.92404926E-03 -3.84032796E-03  1.41845702E-01
  6.84971652E-02 -4.37850714E-03  6.71584354E-03  2.39613545E-03  6.16017004E-03
  2.37616912E-03  7.01026303E-03  6.66241543E-04  9.45694147E-04  2.09760983E-03
 -3.91591340E-04 -1.30763089E-04  1.83871371E-04  7.30662914E-04 -1.86618297E-04
 -8.32362100E-04  3.03930562E-04 -1.53352319E-03 -1.18687614E-02 -2.96039336E-04
  1.23364880E-04 -6.95469919E-03 -3.60125016E-04 -1.90211655E-04 -2.14125759E-04
 -1.14772080E-04  1.42669509E-05  3.75148878E-04 -5.16969578E-05 -5.88330158E-05
  1.19848701E-04 -4.45679745E-04  3.29293937E-04  1.17837834E-04  1.03608218E-03
  3.69910985E-04 -4.89287781E-04 -2.79508447E-03 -1.13600982E-03 -2.56980860E-04
 -1.73219627E-03 -1.17807811E-03 -3.02384063E-05  1.08320851E-04  3.83936218E-04
  1.32730314E-04  2.08956415E-04  7.14474040E-03  1.97791831E-03  3.97597618E-04
  5.34016432E-03 -8.49768005E-03 -5.37998714E-03  1.98693319E-03  4.48014009E-03
 -1.10699418E-02  1.05326195E-03  1.29339022E-03 -3.21493711E-03  4.01755422E-04
  3.70267001E-04 -1.53848007E-04  2.04736557E-04 -4.74785369E-04  5.76831337E-04
 -6.11500847E-04 -1.06126809E-04  2.23775829E-03 -2.36022681E-03  1.86378353E-03
  1.12695342E-03 -1.84451396E-03  1.69631302E-03  8.92980670E-05  1.42528720E-04
 -1.72791676E-05 -1.51499685E-04 -1.13710255E-05 -2.25042627E-04  7.62682736E-04
 -6.34419841E-04  1.29945629E-03  1.23582877E-03  3.88851498E-03  5.89583097E-04
 -2.81975071E-03 -9.42333163E-03 -1.67209311E-03 -1.22404564E-03 -5.08605107E-03
 -7.51150991E-04  6.07562307E-04 -1.94781623E-04 -7.04847678E-04  8.64171198E-04
 -6.97815666E-04 -9.92435382E-03 -2.35398612E-03 -2.55027877E-04  5.73376682E-04
  1.07628130E-02 -1.75230448E-02 -1.03399048E-02  7.25710107E-03 -1.15637200E-02
 -7.37723206E-03  2.72922850E-03 -3.84257726E-03 -2.38322620E-03 -4.59038729E-04
  9.71990718E-05 -9.48625899E-05  1.73373546E-05  7.82704018E-05  5.06588928E-04
 -4.72160708E-04 -4.52460316E-04 -4.51718415E-04  8.67153490E-04 -1.20612417E-03
 -4.00341277E-04  1.10352930E-03 -5.12743087E-04  8.84108638E-05  1.41190390E-04
 -1.25020967E-05 -1.82961500E-04  1.75009460E-04  1.63204618E-04 -3.66039847E-04
  1.18404741E-03  5.80906816E-04 -6.84938593E-04 -9.40348695E-04  4.42182797E-04
  1.81574574E-03  2.94420140E-03 -1.04410324E-03  7.58615973E-04  2.61794618E-03
 -4.27394934E-04  2.32292976E-04 -1.37538483E-04 -4.48124457E-04  7.47727917E-04
  7.98878620E-05 -1.89583467E-02 -4.96900302E-03 -3.88329446E-04  4.91586519E-04
  1.44364349E-03 -8.10657424E-02  1.70095942E-01  1.04677557E-01 -9.62667528E-02
  1.48669270E-01 -3.18288237E-01 -3.04389934E-02  4.60783551E-02 -8.41751006E-02
  8.86005909E-03  1.21659342E-02 -9.57157228E-03 -3.02890745E-03 -4.71823527E-03
  5.56622365E-03 -1.97200826E-02 -1.78566759E-02  3.96893572E-02 -4.33026282E-02
  1.00248884E-01  2.37410682E-02 -3.57035311E-02  7.95929479E-02 -1.88153043E-04
  3.21232353E-03 -6.32660494E-04  7.00424195E-04 -1.50161614E-03 -3.18132704E-03
  7.98861517E-03 -2.83224785E-02 -1.84413592E-02 -8.86273956E-05  2.90034642E-02
 -2.76405119E-02 -9.13078223E-04 -7.43381887E-02  6.97861287E-02  9.08784264E-03
 -5.58603553E-02  6.62330484E-02 -6.78318092E-04 -4.39532129E-03 -1.78645457E-02
 -5.51071026E-03 -2.86309446E-03 -6.61755921E-02 -5.54418365E-02 -2.34064766E-03
  5.06055313E-03 -9.46971375E-03  3.88575662E-01 -2.67420666E-03  1.48733760E-02
  1.01665400E-02 -3.12421542E-02  6.55175199E-02 -1.24756866E-01 -6.33772910E-03
  1.78393268E-02 -2.49489322E-02  4.90290164E-03  8.48750339E-03 -5.73678260E-03
 -9.84462774E-04 -4.78212320E-03 -3.66006608E-03  5.36909337E-03  1.21006963E-02
  4.07908415E-02 -4.49614813E-02  1.07881179E-01  2.40495654E-02 -3.32981598E-02
  7.70562789E-02  5.22222698E-04 -3.71885198E-05 -2.75063488E-04 -7.60255294E-04
 -7.85906729E-05 -6.01875468E-04  9.30512771E-04 -1.57546260E-03  8.98332492E-03
  2.44822365E-03  2.94490609E-02 -2.79460479E-02 -6.13925750E-03 -7.01277210E-02
  6.75725625E-02  2.52936958E-03 -4.52024697E-02  5.54902325E-02  2.23862671E-03
 -1.13183644E-03 -6.61175724E-03  1.92404926E-03 -3.84032796E-03 -5.54418365E-02
 -3.05447538E-02 -1.76728361E-03  3.54418891E-03 -1.59822164E-03  1.41845702E-01
  6.84971652E-02 -4.37850714E-03  6.71584354E-03  2.39613545E-03  6.16017004E-03
  2.37616912E-03 -7.01026303E-03  6.66241543E-04  9.45694147E-04 -2.09760983E-03
 -3.91591340E-04  1.30763089E-04 -1.83871371E-04  7.30662914E-04 -1.86618297E-04
 -8.32362100E-04  3.03930562E-04 -1.53352319E-03 -1.18687614E-02 -2.96039336E-04
 -1.23364880E-04 -6.95469919E-03 -3.60125016E-04  1.90211655E-04 -2.14125759E-04
  1.14772080E-04 -1.42669509E-05  3.75148878E-04 -5.16969578E-05 -5.88330158E-05
  1.19848701E-04 -4.45679745E-04  3.29293937E-04  1.17837834E-04  1.03608218E-03
 -3.69910985E-04 -4.89287781E-04 -2.79508447E-03  1.13600982E-03 -2.56980860E-04
 -1.73219627E-03  1.17807811E-03 -3.02384063E-05 -1.08320851E-04 -3.83936218E-04
  1.32730314E-04  2.08956415E-04 -2.34064766E-03 -1.76728361E-03  1.87993718E-04
  6.89579342E-05 -1.70874174E-04  7.14474040E-03  1.97791831E-03  3.97597618E-04
  5.34016432E-03 -8.49768005E-03 -5.37998714E-03  1.98693319E-03  4.48014009E-03
  1.10699418E-02  1.05326195E-03  1.29339022E-03  3.21493711E-03  4.01755422E-04
 -3.70267001E-04  1.53848007E-04  2.04736557E-04 -4.74785369E-04  5.76831337E-04
 -6.11500847E-04 -1.06126809E-04  2.23775829E-03 -2.36022681E-03 -1.86378353E-03
  1.12695342E-03 -1.84451396E-03 -1.69631302E-03  8.92980670E-05 -1.42528720E-04
  1.72791676E-05 -1.51499685E-04 -1.13710255E-05 -2.25042627E-04  7.62682736E-04
 -6.34419841E-04  1.29945629E-03  1.23582877E-03  3.88851498E-03 -5.89583097E-04
 -2.81975071E-03 -9.42333163E-03  1.67209311E-03 -1.22404564E-03 -5.08605107E-03
  7.51150991E-04  6.07562307E-04  1.94781623E-04  7.04847678E-04  8.64171198E-04
 -6.97815666E-04  5.06055313E-03  3.54418891E-03  6.89579342E-05  3.57965901E-05
  1.42341225E-04 -9.92435382E-03 -2.35398612E-03 -2.55027877E-04  5.73376682E-04
 -1.07628130E-02  1.75230448E-02  1.03399048E-02 -7.25710107E-03  1.15637200E-02
 -7.37723206E-03 -2.72922850E-03  3.84257726E-03 -2.38322620E-03  4.59038729E-04
  9.71990718E-05 -9.48625899E-05 -1.73373546E-05 -7.82704018E-05 -5.06588928E-04
  4.72160708E-04  4.52460316E-04  4.51718415E-04 -8.67153490E-04 -1.20612417E-03
  4.00341277E-04 -1.10352930E-03 -5.12743087E-04 -8.84108638E-05  1.41190390E-04
 -1.25020967E-05  1.82961500E-04 -1.75009460E-04 -1.63204618E-04  3.66039847E-04
 -1.18404741E-03 -5.80906816E-04  6.84938593E-04  9.40348695E-04  4.42182797E-04
 -1.81574574E-03 -2.94420140E-03 -1.04410324E-03 -7.58615973E-04 -2.61794618E-03
 -4.27394934E-04 -2.32292976E-04 -1.37538483E-04 -4.48124457E-04 -7.47727917E-04
 -7.98878620E-05  9.46971375E-03  1.59822164E-03  1.70874174E-04 -1.42341225E-04
 -1.20372149E-03  1.89583467E-02  4.96900302E-03  3.88329446E-04 -4.91586519E-04
  1.44364349E-03
Grdnt Energy                               R     -5.993620525223364E+02
Grdnt NVar                                 I               14
Grdnt IGetFC                               I                4
Internal Forces                            R   N=          14
 -5.37424413E-07  1.03889413E-06  2.65805331E-06  2.65805331E-06  5.93617255E-07
 -5.70625094E-07 -1.00589405E-06 -1.09378915E-07  2.31305970E-07  9.28856755E-07
 -3.27613911E-07  2.84745505E-07  8.15346272E-07  5.30600766E-07
Internal Force Constants                   R   N=         105
  3.84064308E-01  4.07801339E-02  1.95840232E-01  1.25241105E-02  4.16671972E-03
  3.42343598E-01  1.25241105E-02  4.16671972E-03  2.36718781E-03  3.42343598E-01
  2.53248061E-03  3.07889741E-03  1.45536084E-03  1.18309608E-03  3.22214415E-02
  1.18638770E-02  6.18700666E-04 -2.82771373E-04 -4.35503376E-03 -9.51178701E-03
  5.75520442E-02  2.18362999E-02 -9.62670297E-03 -3.69547749E-03  1.40520419E-03
 -1.85701628E-02 -4.02784637E-02  1.01555545E-01 -1.55633143E-03  9.43450014E-03
 -3.06926198E-03 -2.90705667E-03 -9.12368355E-03  1.52295063E-03  1.98546840E-02
  4.30838857E-02 -1.40689527E-02  1.68920536E-02 -3.16650927E-03 -4.29441108E-03
 -1.71669025E-02  2.26980253E-02 -3.58318509E-02 -2.91468682E-02  8.40005395E-02
 -2.18175648E-02 -1.93478016E-02  8.75630669E-03  8.90267558E-03  2.34412972E-02
 -3.21699049E-02 -2.94911583E-02 -2.67427552E-02 -2.34191948E-02  8.96012501E-02
 -8.80695639E-03 -9.65736725E-03  2.31906164E-04  2.75768160E-03 -2.79827475E-02
 -2.18909425E-02  3.32405256E-02 -1.54774557E-02  2.51776638E-02  5.81408578E-03
  5.51930834E-02  6.99266722E-03  8.31473982E-03 -2.21263984E-03 -3.36149385E-04
  1.81003225E-02 -2.06540958E-02  1.35967472E-02 -1.71037766E-02  9.06072218E-03
 -2.33023851E-03  2.41801270E-05  3.48189090E-02 -1.58839083E-02  1.95252876E-02
 -3.02957635E-03 -1.57741955E-03  9.38632619E-03 -2.26287228E-02 -1.07137743E-03
  2.23054530E-03  1.28737372E-02  5.96567240E-04  1.33723983E-04  1.83360935E-02
  2.94193811E-02 -2.28765755E-02  1.12105478E-02 -8.16936512E-04 -1.24127017E-03
 -8.71399632E-03 -1.97462694E-03 -1.46681246E-02  1.93343219E-02  3.81301500E-03
  2.92680575E-03  1.09543856E-04 -1.64828155E-02  1.10832876E-02  2.75661032E-02
Mulliken Charges                           R   N=           5
  1.89772755E-01 -1.92838416E-01 -1.37471993E-01  7.02688271E-02  7.02688271E-02
Optimization MaxStp                        I                2
Optimization MaxJob                        I                1
Optimization Job offset                    I                0
Optimization Num results per geometry      I                2
Optimization Num geometry variables        I               15
Optimization Reference Energy              R     -5.990000000000000E+02
Opt point       1 Results for each geome   R   N=           2
 -3.62052522E-01  0.00000000E+00
Opt point       1 Geometries               R   N=          15
  1.30309437E-16  1.54163258E+00 -3.10894074E-32  2.57091616E+00  1.47332862E+00
 -1.53112151E-31 -1.28119770E+00 -1.61526315E+00  9.54183661E-33 -6.78942299E-01
  2.47486025E+00  1.72572495E+00 -6.78942299E-01  2.47486025E+00 -1.72572495E+00
Opt point       1 Gradient at each geome   R   N=          15
 -9.18670644E-07  2.89312762E-06  1.30852061E-16  4.50848461E-07 -3.06353261E-07
  1.73294495E-16  1.38963782E-06  5.29291018E-07  9.04992548E-17 -4.60907874E-07
 -1.55803269E-06 -2.50341556E-06 -4.60907873E-07 -1.55803269E-06  2.50341556E-06
Optimization Number of geometries          I   N=           1
           1
ONIOM Charges                              I   N=          16
           0           0           0           0           0           0
           0           0           0           0           0           0
           0           0           0           0
ONIOM Multiplicities                       I   N=          16
           1           0           0           0           0           0
           0           0           0           0           0           0
           0           0           0           0
Atom Layers                                I   N=           5
           1           1           1           1           1
Atom Modifiers                             I   N=           5
           0           0           0           0           0
Int Atom Modified Types                    I   N=           5
           0           0           0           0           0
Force Field                                I                0
Atom Modified Types                        C   N=           5
                                                            
Link Atoms                                 I   N=           5
           0           0           0           0           0
Atom Modified MM Charges                   R   N=           5
  0.00000000E+00  0.00000000E+00  0.00000000E+00  0.00000000E+00  0.00000000E+00
Link Distances                             R   N=          20
  0.00000000E+00  0.00000000E+00  0.00000000E+00  0.00000000E+00  0.00000000E+00
  0.00000000E+00  0.00000000E+00  0.00000000E+00  0.00000000E+00  0.00000000E+00
  0.00000000E+00  0.00000000E+00  0.00000000E+00  0.00000000E+00  0.00000000E+00
  0.00000000E+00  0.00000000E+00  0.00000000E+00  0.00000000E+00  0.00000000E+00
Cartesian Gradient                         R   N=          15
 -9.18670644E-07  2.89312762E-06  1.30852061E-16  4.50848461E-07 -3.06353261E-07
  1.73294495E-16  1.38963782E-06  5.29291018E-07  9.04992548E-17 -4.60907874E-07
 -1.55803269E-06 -2.50341556E-06 -4.60907873E-07 -1.55803269E-06  2.50341556E-06
Cartesian Force Constants                  R   N=         120
  4.59678148E-01 -9.74537862E-02  3.75286988E-01 -6.17088973E-15 -1.75349044E-14
  6.29572868E-01 -2.91098049E-01  4.41212676E-02 -2.19789492E-14  3.83555893E-01
  1.49094612E-02 -6.22910242E-02  5.49907887E-15 -1.39498453E-02  5.40915842E-02
 -2.01023194E-14  2.45076719E-14 -7.43786548E-02  1.85847896E-13 -5.71573123E-14
  4.89012347E-02 -2.99873941E-02 -1.92931549E-02  1.17624471E-14 -2.85799511E-02
 -3.30908768E-02  9.69470662E-19  5.17932396E-02 -4.71572881E-03 -1.21619457E-01
  2.72764864E-14 -3.28704905E-02 -3.22719997E-03 -5.36733054E-15  5.73611128E-02
  1.73006249E-01  2.57029140E-15 -3.79542404E-15 -4.02874428E-02 -3.07356315E-15
  2.37692125E-16  5.74578285E-03  2.35861103E-15 -3.97021533E-15  2.19046669E-02
 -6.92963526E-02  3.63128367E-02  6.08356531E-02 -3.19389465E-02  1.60656305E-02
  3.04114817E-02  3.38705277E-03 -9.88744673E-03 -6.33806289E-03  9.06307507E-02
  4.36300269E-02 -9.56882535E-02 -1.00912792E-01  1.34953409E-03  5.71331999E-03
 -8.87841110E-04 -2.48854054E-03 -2.40797960E-02 -1.67350607E-02 -3.90110689E-02
  1.04401175E-01  6.97382861E-02 -1.02306472E-01 -2.57453385E-01  1.74354772E-03
  1.97566526E-03  9.86581865E-03 -2.09596691E-04  4.89457936E-03  6.31849652E-03
 -7.80906545E-02  1.06985961E-01  2.57131002E-01 -6.92963526E-02  3.63128367E-02
 -6.08356531E-02 -3.19389465E-02  1.60656305E-02 -3.04114817E-02  3.38705277E-03
 -9.88744673E-03  6.33806289E-03  7.21749561E-03 -3.47995158E-03  6.81841742E-03
  9.06307507E-02  4.36300269E-02 -9.56882535E-02  1.00912792E-01  1.34953409E-03
  5.71331999E-03  8.87841110E-04 -2.48854054E-03 -2.40797960E-02  1.67350607E-02
 -3.47995158E-03  9.65355414E-03 -1.15497335E-02 -3.90110689E-02  1.04401175E-01
 -6.97382861E-02  1.02306472E-01 -2.57453385E-01 -1.74354773E-03 -1.97566526E-03
  9.86581865E-03  2.09596691E-04 -4.89457936E-03  6.31849652E-03 -6.81841742E-03
  1.15497335E-02 -1.58619317E-02  7.80906545E-02 -1.06985961E-01  2.57131002E-01
Nonadiabatic coupling                      R   N=          15
  0.00000000E+00  0.00000000E+00 -0.00000000E+00  0.00000000E+00  0.00000000E+00
 -0.00000000E+00  0.00000000E+00  0.00000000E+00 -0.00000000E+00  0.00000000E+00
  0.00000000E+00 -0.00000000E+00  0.00000000E+00  0.00000000E+00 -0.00000000E+00
Dipole Moment                              R   N=           3
 -3.37157419E-01  6.45945765E-01 -8.20401523E-17
Dipole Derivatives                         R   N=          45
  1.26918423E+00  4.61667039E-01  6.46116342E-14  3.08325542E-01  1.06468971E+00
 -3.14768535E-14 -2.51807367E-13  4.51748373E-14  4.67055203E-01 -1.00527412E+00
 -2.60322808E-01  3.26814855E-13 -2.23723890E-02 -2.90275208E-01 -6.35929767E-14
  1.72070353E-14 -1.64972957E-13 -2.25080331E-01 -2.70698113E-01 -1.60346897E-01
 -2.67867834E-13 -2.43987494E-01 -6.12690061E-01  1.40695335E-13 -2.72395657E-14
  1.52442262E-13 -1.62421934E-01  3.39400610E-03 -2.04986670E-02  5.96459213E-03
 -2.09828294E-02 -8.08622218E-02 -5.56514707E-02  4.65224832E-02 -6.26061707E-02
 -3.97764687E-02  3.39400610E-03 -2.04986670E-02 -5.96459213E-03 -2.09828294E-02
 -8.08622218E-02  5.56514707E-02 -4.65224832E-02  6.26061707E-02 -3.97764687E-02
Polarizability                             R   N=           6
  1.94853869E+01  5.11460482E+00  2.74932850E+01  3.54383189E-13 -2.42383891E-12
  1.63246890E+01
Quadrupole Moment                          R   N=           6
 -1.51867621E+00  1.04319620E+00  4.75480011E-01 -1.04330430E+00 -9.57856363E-17
 -3.64997913E-16
QEq coupling tensors                       R   N=          30
 -3.33164190E-01 -1.23352080E-01 -1.08346648E-01 -2.97818808E-14 -1.03971119E-17
  4.41510838E-01 -2.92494567E+00  3.24981293E-02  1.26544961E+00 -2.72840610E-15
 -1.20211864E-17  1.65949605E+00  8.80362193E-01 -1.71624424E+00 -2.75167535E+00
 -3.77637175E-15  2.50109755E-19  1.87131315E+00  9.01427699E-02  6.00043190E-02
  6.01155192E-02  1.16992338E-01 -1.61885570E-01 -1.50258289E-01  9.01427699E-02
  6.00043190E-02  6.01155192E-02 -1.16992338E-01  1.61885570E-01 -1.50258289E-01
Number of Normal Modes                     I                9
Vib-LE2Fix                                 I               14
Vib-NDFDPol                                I                0
Vib-NumROA                                 I                0
Vib-NDim                                   I                5
Vib-NDim0                                  I                5
Vib-LFlags                                 I                8
Vib-IFlags                                 I   N=          72
           0           0           1           0           0           0
           0           0           0           0           2           0
           0           0           0           0           0           0
           3           0           0           0           0           0
           0           0           4           0           0           0
           0           0           0           0           5           0
           0           0           0           0           0           0
           6           0           0           0           0           0
           0           0           7           0           0           0
           0           0           0           0           8           0
           0           0           0           0           0           0
           9           0           0           0           0           0
Vib-AtMass                                 R   N=           5
  1.20000000E+01  1.89984032E+01  3.49688527E+01  1.00782504E+00  1.00782504E+00
Vib-E2                                     R   N=         126
  3.75377711E+02  7.24121363E+02  9.86737972E+02  1.10059268E+03  1.23653083E+03
  1.34830265E+03  1.47670197E+03  3.07502495E+03  3.15681885E+03  1.57236632E+01
  6.57202639E+00  1.32056552E+00  8.30834429E+00  1.09416356E+00  1.14012471E+00
  1.09613265E+00  1.05219946E+00  1.12012792E+00  1.30539186E+00  2.03035613E+00
  7.57554422E-01  5.92949797E+00  9.85694529E-01  1.22117341E+00  1.40831246E+00
  5.86199665E+00  6.57683802E+00  1.19960517E+00  9.97989424E+01  5.54675800E-01
  1.75608293E+02  3.41401270E+00  4.34533594E+01  1.11963911E+00  2.60366486E+01
  1.50366690E+01  0.00000000E+00  0.00000000E+00  0.00000000E+00  0.00000000E+00
  0.00000000E+00  0.00000000E+00  0.00000000E+00  0.00000000E+00  0.00000000E+00
  0.00000000E+00  0.00000000E+00  0.00000000E+00  0.00000000E+00  0.00000000E+00
  0.00000000E+00  0.00000000E+00  0.00000000E+00  0.00000000E+00  0.00000000E+00
  0.00000000E+00  0.00000000E+00  0.00000000E+00  0.00000000E+00  0.00000000E+00
  0.00000000E+00  0.00000000E+00  0.00000000E+00  0.00000000E+00  0.00000000E+00
  0.00000000E+00  0.00000000E+00  0.00000000E+00  0.00000000E+00  0.00000000E+00
  0.00000000E+00  0.00000000E+00  0.00000000E+00  0.00000000E+00  0.00000000E+00
  0.00000000E+00  0.00000000E+00  0.00000000E+00  0.00000000E+00  0.00000000E+00
  0.00000000E+00  1.00000000E+02  1.00000000E+02  1.00000000E+02  1.00000000E+02
  1.00000000E+02  1.00000000E+02  1.00000000E+02  1.00000000E+02  1.00000000E+02
  0.00000000E+00  0.00000000E+00  0.00000000E+00  0.00000000E+00  0.00000000E+00
  0.00000000E+00  0.00000000E+00  0.00000000E+00  0.00000000E+00  0.00000000E+00
  0.00000000E+00  0.00000000E+00  0.00000000E+00  0.00000000E+00  0.00000000E+00
  0.00000000E+00  0.00000000E+00  0.00000000E+00  0.00000000E+00  0.00000000E+00
  0.00000000E+00  0.00000000E+00  0.00000000E+00  0.00000000E+00  0.00000000E+00
  0.00000000E+00  0.00000000E+00  0.00000000E+00  0.00000000E+00  0.00000000E+00
  0.00000000E+00  0.00000000E+00  0.00000000E+00  0.00000000E+00  0.00000000E+00
  0.00000000E+00
Vib-Modes                                  R   N=         135
  3.26116271E-01 -1.77214100E-01 -9.60586298E-15  3.82070088E-01  5.40852691E-01
  8.62021424E-15 -3.31509225E-01 -2.15726623E-01 -1.12952717E-15  2.08558237E-01
 -3.00179000E-01  7.06651126E-03  2.08558237E-01 -3.00179000E-01 -7.06651126E-03
  9.64364761E-02  6.02904689E-01  9.64920108E-14 -3.83050885E-03 -7.30011259E-02
 -2.07168860E-14 -3.88887938E-02 -1.97066580E-01 -1.47469579E-14  1.36646904E-01
  5.17570375E-01  6.48521023E-02  1.36646904E-01  5.17570375E-01 -6.48521023E-02
 -3.93801282E-13  4.81159621E-15  1.57761134E-01  3.43794901E-13 -3.62648856E-14
 -3.29368199E-02  3.21076494E-15  1.85491668E-14 -2.40505949E-02 -6.94994203E-02
  6.61173301E-01 -2.11527246E-01  6.94994203E-02 -6.61173301E-01 -2.11527246E-01
  6.02828864E-01 -6.32805813E-02 -8.33745197E-14 -4.23751376E-01  3.64003757E-02
  4.42159884E-13 -7.35918416E-04  1.49382782E-02 -1.95032683E-13  4.17923415E-01
 -2.25513594E-01  1.49381380E-02  4.17923415E-01 -2.25513594E-01 -1.49381380E-02
 -1.60964855E-12 -2.46789943E-13 -6.70927926E-02  6.32972815E-13  5.80033281E-14
  4.45709787E-02  1.96074395E-14 -7.63299861E-14 -5.73835424E-03  6.68725106E-01
  2.08143684E-01  7.88826154E-02 -6.68725106E-01 -2.08143684E-01  7.88826154E-02
 -4.97766843E-02 -8.93732859E-02  4.97648880E-13 -1.85146497E-02  2.00121071E-02
 -2.77251612E-13  1.24723226E-03 -1.06313042E-02  1.94102125E-14  4.49212253E-01
  5.27892155E-01 -1.17799170E-01  4.49212253E-01  5.27892155E-01  1.17799170E-01
 -8.00585162E-02  3.86299225E-02  3.01178166E-13 -4.56325102E-03  6.35017530E-03
 -1.51008042E-13  2.26937909E-03  2.27938829E-03  5.36811052E-15  4.80261483E-01
 -3.29377536E-01  3.96071687E-01  4.80261483E-01 -3.29377536E-01 -3.96071687E-01
  3.79943526E-02 -5.09134386E-02 -6.08340727E-13  6.39991247E-04  3.25343272E-04
  2.17202562E-14 -2.76267975E-04  1.62970545E-04  2.07677852E-15 -2.27435444E-01
  2.97214966E-01  5.98262651E-01 -2.27435444E-01  2.97214966E-01 -5.98262651E-01
 -2.09096762E-13  2.91931353E-13 -1.01072114E-01 -3.86209602E-14  7.04262050E-15
  6.79651816E-04  1.63983409E-15 -1.36329252E-15  3.07678497E-04 -2.26532074E-01
  3.09028095E-01  5.89980332E-01  2.26532074E-01 -3.09028095E-01  5.89980332E-01
ClPar MaxAn                                I              200
ClPar NIntPar                              I                4
ClPar NRealPar                             I               16
ClPar NBits                                I               30
ClPar LenBitVec                            I                1
ClPar Read BitMap                          I   N=         200
           0           0           0           0           0           0
           0           0           0           0           0           0
           0           0           0           0           0           0
           0           0           0           0           0           0
           0           0           0           0           0           0
           0           0           0           0           0           0
           0           0           0           0           0           0
           0           0           0           0           0           0
           0           0           0           0           0           0
           0           0           0           0           0           0
           0           0           0           0           0           0
           0           0           0           0           0           0
           0           0           0           0           0           0
           0           0           0           0           0           0
           0           0           0           0           0           0
           0           0           0           0           0           0
           0           0           0           0           0           0
           0           0           0           0           0           0
           0           0           0           0           0           0
           0           0           0           0           0           0
           0           0           0           0           0           0
           0           0           0           0           0           0
           0           0           0           0           0           0
           0           0           0           0           0           0
           0           0           0           0           0           0
           0           0           0           0           0           0
           0           0           0           0           0           0
           0           0           0           0           0           0
           0           0           0           0           0           0
           0           0           0           0           0           0
           0           0           0           0           0           0
           0           0           0           0           0           0
           0           0           0           0           0           0
           0           0
ClPar Default BitMap                       I   N=         200
        2016        2016        2016        2016        2016        2016
        2016        2016        2016        2016        2016        2016
        2016        2016        2016        2016        2016        2016
        2016        2016        2016        2016        2016        2016
        2016        2016        2016        2016        2016        2016
        2016        2016        2016        2016        2016        2016
        2016        2016        2016        2016        2016        2016
        2016        2016        2016        2016        2016        2016
        2016        2016        2016        2016        2016        2016
        2016        2016        2016        2016        2016        2016
        2016        2016        2016        2016        2016        2016
        2016        2016        2016        2016        2016        2016
        2016        2016        2016        2016        2016        2016
        2016        2016        2016        2016        2016        2016
        2016        2016         480         480         480         480
         480         480         480         480         480         480
         480         480         480         480         480         480
         480         480         480         480         480         480
         480         480         480         480         480         480
         480         480         480         480         480         480
         480         480         480         480         480         480
         480         480         480         480         480         480
         480         480         480         480         480         480
         480         480         480         480         480         480
         480         480         480         480         480         480
         480         480         480         480         480         480
         480         480         480         480         480         480
         480         480         480         480         480         480
         480         480         480         480         480         480
         480         480         480         480         480         480
         480         480         480         480         480         480
         480         480         480         480         480         480
         480         480         480         480         480         480
         480         480
ClPar Int Params                           I   N=         800
           0           0           0           0           0           0
           0           0           0           0           0           0
           0           0           0           0           0           0
           0           0           0           0           0           0
           0           0           0           0           0           0
           0           0           0           0           0           0
           0           0           0           0           0           0
           0           0           0           0           0           0
           0           0           0           0           0           0
           0           0           0           0           0           0
           0           0           0           0           0           0
           0           0           0           0           0           0
           0           0           0           0           0           0
           0           0           0           0           0           0
           0           0           0           0           0           0
           0           0           0           0           0           0
           0           0           0           0           0           0
           0           0           0           0           0           0
           0           0           0           0           0           0
           0           0           0           0           0           0
           0           0           0           0           0           0
           0           0           0           0           0           0
           0           0           0           0           0           0
           0           0           0           0           0           0
           0           0           0           0           0           0
           0           0           0           0           0           0
           0           0           0           0           0           0
           0           0           0           0           0           0
           0           0           0           0           0           0
           0           0           0           0           0           0
           0           0           0           0           0           0
           0           0           0           0           0           0
           0           0           0           0           0           0
           0           0           0           0           0           0
           0           0           0           0           0           0
           0           0           0           0           0           0
           0           0           0           0           0           0
           0           0           0           0           0           0
           0           0           0           0           0           0
           0           0           0           0           0           0
           0           0           0           0           0           0
           0           0           0           0           0           0
           0           0           0           0           0           0
           0           0           0           0           0           0
           0           0           0           0           0           0
           0           0           0           0           0           0
           0           0           0           0           0           0
           0           0           0           0           0           0
           0           0           0           0           0           0
           0           0           0           0           0           0
           0           0           0           0           0           0
           0           0           0           0           0           0
           0           0           0           0           0           0
           0           0           0           0           0           0
           0           0           0           0           0           0
           0           0           0           0           0           0
           0           0           0           0           0           0
           0           0           0           0           0           0
           0           0           0           0           0           0
           0           0           0           0           0           0
           0           0           0           0           0           0
           0           0           0           0           0           0
           0           0           0           0           0           0
           0           0           0           0           0           0
           0           0           0           0           0           0
           0           0           0           0           0           0
           0           0           0           0           0           0
           0           0           0           0           0           0
           0           0           0           0           0           0
           0           0           0           0           0           0
           0           0           0           0           0           0
           0           0           0           0           0           0
           0           0           0           0           0           0
           0           0           0           0           0           0
           0           0           0           0           0           0
           0           0           0           0           0           0
           0           0           0           0           0           0
           0           0           0           0           0           0
           0           0           0           0           0           0
           0           0           0           0           0           0
           0           0           0           0           0           0
           0           0           0           0           0           0
           0           0           0           0           0           0
           0           0           0           0           0           0
           0           0           0           0           0           0
           0           0           0           0           0           0
           0           0           0           0           0           0
           0           0           0           0           0           0
           0           0           0           0           0           0
           0           0           0           0           0           0
           0           0           0           0           0           0
           0           0           0           0           0           0
           0           0           0           0           0           0
           0           0           0           0           0           0
           0           0           0           0           0           0
           0           0           0           0           0           0
           0           0           0           0           0           0
           0           0           0           0           0           0
           0           0           0           0           0           0
           0           0           0           0           0           0
           0           0           0           0           0           0
           0           0           0           0           0           0
           0           0           0           0           0           0
           0           0           0           0           0           0
           0           0           0           0           0           0
           0           0           0           0           0           0
           0           0           0           0           0           0
           0           0           0           0           0           0
           0           0           0           0           0           0
           0           0           0           0           0           0
           0           0           0           0           0           0
           0           0           0           0           0           0
           0           0           0           0           0           0
           0           0           0           0           0           0
           0           0           0           0           0           0
           0           0           0           0           0           0
           0           0           0           0           0           0
           0           0           0           0           0           0
           0           0           0           0           0           0
           0           0           0           0           0           0
           0           0           0           0           0           0
           0           0           0           0           0           0
           0           0           0           0           0           0
           0           0           0           0           0           0
           0           0           0           0           0           0
           0           0           0           0           0           0
           0           0           0           0           0           0
           0           0           0           0           0           0
           0           0           0           0           0           0
           0           0           0           0           0           0
           0           0           0           0           0           0
           0           0           0           0           0           0
           0           0           0           0           0           0
           0           0
ClPar Real Params                          R   N=        3200
  0.00000000E+00  0.00000000E+00  0.00000000E+00  0.00000000E+00  0.00000000E+00
  0.00000000E+00  0.00000000E+00  0.00000000E+00  0.00000000E+00  0.00000000E+00
  0.00000000E+00  0.00000000E+00  0.00000000E+00  0.00000000E+00  0.00000000E+00
  0.00000000E+00  0.00000000E+00  0.00000000E+00  0.00000000E+00  0.00000000E+00
  0.00000000E+00  0.00000000E+00  0.00000000E+00  0.00000000E+00  0.00000000E+00
  0.00000000E+00  0.00000000E+00  0.00000000E+00  0.00000000E+00  0.00000000E+00
  0.00000000E+00  0.00000000E+00  0.00000000E+00  0.00000000E+00  0.00000000E+00
  0.00000000E+00  0.00000000E+00  0.00000000E+00  0.00000000E+00  0.00000000E+00
  0.00000000E+00  0.00000000E+00  0.00000000E+00  0.00000000E+00  0.00000000E+00
  0.00000000E+00  0.00000000E+00  0.00000000E+00  0.00000000E+00  0.00000000E+00
  0.00000000E+00  0.00000000E+00  0.00000000E+00  0.00000000E+00  0.00000000E+00
  0.00000000E+00  0.00000000E+00  0.00000000E+00  0.00000000E+00  0.00000000E+00
  0.00000000E+00  0.00000000E+00  0.00000000E+00  0.00000000E+00  0.00000000E+00
  0.00000000E+00  0.00000000E+00  0.00000000E+00  0.00000000E+00  0.00000000E+00
  0.00000000E+00  0.00000000E+00  0.00000000E+00  0.00000000E+00  0.00000000E+00
  0.00000000E+00  0.00000000E+00  0.00000000E+00  0.00000000E+00  0.00000000E+00
  0.00000000E+00  0.00000000E+00  0.00000000E+00  0.00000000E+00  0.00000000E+00
  0.00000000E+00  0.00000000E+00  0.00000000E+00  0.00000000E+00  0.00000000E+00
  0.00000000E+00  0.00000000E+00  0.00000000E+00  0.00000000E+00  0.00000000E+00
  0.00000000E+00  0.00000000E+00  0.00000000E+00  0.00000000E+00  0.00000000E+00
  0.00000000E+00  0.00000000E+00  0.00000000E+00  0.00000000E+00  0.00000000E+00
  0.00000000E+00  0.00000000E+00  0.00000000E+00  0.00000000E+00  0.00000000E+00
  0.00000000E+00  0.00000000E+00  0.00000000E+00  0.00000000E+00  0.00000000E+00
  0.00000000E+00  0.00000000E+00  0.00000000E+00  0.00000000E+00  0.00000000E+00
  0.00000000E+00  0.00000000E+00  0.00000000E+00  0.00000000E+00  0.00000000E+00
  0.00000000E+00  0.00000000E+00  0.00000000E+00  0.00000000E+00  0.00000000E+00
  0.00000000E+00  0.00000000E+00  0.00000000E+00  0.00000000E+00  0.00000000E+00
  0.00000000E+00  0.00000000E+00  0.00000000E+00  0.00000000E+00  0.00000000E+00
  0.00000000E+00  0.00000000E+00  0.00000000E+00  0.00000000E+00  0.00000000E+00
  0.00000000E+00  0.00000000E+00  0.00000000E+00  0.00000000E+00  0.00000000E+00
  0.00000000E+00  0.00000000E+00  0.00000000E+00  0.00000000E+00  0.00000000E+00
  0.00000000E+00  0.00000000E+00  0.00000000E+00  0.00000000E+00  0.00000000E+00
  0.00000000E+00  0.00000000E+00  0.00000000E+00  0.00000000E+00  0.00000000E+00
  0.00000000E+00  0.00000000E+00  0.00000000E+00  0.00000000E+00  0.00000000E+00
  0.00000000E+00  0.00000000E+00  0.00000000E+00  0.00000000E+00  0.00000000E+00
  0.00000000E+00  0.00000000E+00  0.00000000E+00  0.00000000E+00  0.00000000E+00
  0.00000000E+00  0.00000000E+00  0.00000000E+00  0.00000000E+00  0.00000000E+00
  0.00000000E+00  0.00000000E+00  0.00000000E+00  0.00000000E+00  0.00000000E+00
  0.00000000E+00  0.00000000E+00  0.00000000E+00  0.00000000E+00  0.00000000E+00
  0.00000000E+00  0.00000000E+00  0.00000000E+00  0.00000000E+00  0.00000000E+00
  2.26000000E-01  4.43000000E-01  1.01000000E-01  1.47000000E-01  1.92000000E-01
  2.40000000E-01  2.75000000E-01  3.03000000E-01  3.25000000E-01  4.13000000E-01
  9.60000000E-02  1.35000000E-01  1.73000000E-01  2.11000000E-01  2.48000000E-01
  2.86000000E-01  3.23000000E-01  3.60000000E-01  8.20000000E-02  1.04000000E-01
  1.17000000E-01  1.23000000E-01  1.29000000E-01  1.34000000E-01  1.40000000E-01
  1.44000000E-01  1.48000000E-01  1.52000000E-01  1.55000000E-01  1.76000000E-01
  1.98000000E-01  2.19000000E-01  2.39000000E-01  2.60000000E-01  2.80000000E-01
  3.00000000E-01  7.90000000E-02  9.90000000E-02  1.19000000E-01  1.26000000E-01
  1.33000000E-01  1.40000000E-01  1.47000000E-01  1.53000000E-01  1.58000000E-01
  1.63000000E-01  1.57000000E-01  1.70000000E-01  1.87000000E-01  2.03000000E-01
  2.19000000E-01  2.34000000E-01  2.50000000E-01  2.65000000E-01  7.40000000E-02
  9.20000000E-02  1.05000000E-01  1.06000000E-01  1.07000000E-01  1.08000000E-01
  1.09000000E-01  1.10000000E-01  1.11000000E-01  1.12000000E-01  1.13000000E-01
  1.14000000E-01  1.15000000E-01  1.16000000E-01  1.17000000E-01  1.17000000E-01
  1.26000000E-01  1.36000000E-01  1.46000000E-01  1.55000000E-01  1.65000000E-01
  1.73000000E-01  1.82000000E-01  1.90000000E-01  1.62000000E-01  1.78000000E-01
  1.10000000E-01  1.35000000E-01  1.59000000E-01  1.83000000E-01  2.07000000E-01
  2.31000000E-01  6.90000000E-02  9.40000000E-02  1.02000000E-01  1.03000000E-01
  1.05000000E-01  1.07000000E-01  1.09000000E-01  1.11000000E-01  1.13000000E-01
  1.15000000E-01  1.17000000E-01  1.19000000E-01  1.20000000E-01  1.22000000E-01
  1.24000000E-01  1.26000000E-01  1.28000000E-01  1.28000000E-01  1.28000000E-01
  1.28000000E-01  1.28000000E-01  1.28000000E-01  1.28000000E-01  1.28000000E-01
  1.28000000E-01  1.28000000E-01  1.28000000E-01  1.28000000E-01  1.28000000E-01
  1.28000000E-01  1.28000000E-01  1.28000000E-01  1.28000000E-01  1.28000000E-01
  1.28000000E-01  1.28000000E-01  1.28000000E-01  1.28000000E-01  1.28000000E-01
  1.28000000E-01  1.28000000E-01  1.28000000E-01  1.28000000E-01  1.28000000E-01
  1.28000000E-01  1.28000000E-01  1.28000000E-01  1.28000000E-01  1.28000000E-01
  1.28000000E-01  1.28000000E-01  1.28000000E-01  1.28000000E-01  1.28000000E-01
  1.28000000E-01  1.28000000E-01  1.28000000E-01  1.28000000E-01  1.28000000E-01
  1.28000000E-01  1.28000000E-01  1.28000000E-01  1.28000000E-01  1.28000000E-01
  1.28000000E-01  1.28000000E-01  1.28000000E-01  1.28000000E-01  1.28000000E-01
  1.28000000E-01  1.28000000E-01  1.28000000E-01  1.28000000E-01  1.28000000E-01
  1.28000000E-01  1.28000000E-01  1.28000000E-01  1.28000000E-01  1.28000000E-01
  1.28000000E-01  1.28000000E-01  1.28000000E-01  1.28000000E-01  1.28000000E-01
  1.28000000E-01  1.28000000E-01  1.28000000E-01  1.28000000E-01  1.28000000E-01
  1.28000000E-01  1.28000000E-01  1.28000000E-01  1.28000000E-01  1.28000000E-01
  1.28000000E-01  1.28000000E-01  1.28000000E-01  1.28000000E-01  1.28000000E-01
  1.28000000E-01  1.28000000E-01  1.28000000E-01  1.28000000E-01  1.28000000E-01
  1.28000000E-01  1.28000000E-01  1.28000000E-01  1.28000000E-01  1.28000000E-01
  1.28000000E-01  1.28000000E-01  1.28000000E-01  1.28000000E-01  1.28000000E-01
  5.47000000E-01  5.92000000E-01  5.99000000E-01  6.68000000E-01  6.98000000E-01
  7.18000000E-01  7.26000000E-01  7.36000000E-01  7.43000000E-01  7.45000000E-01
  6.07000000E-01  6.66000000E-01  6.93000000E-01  7.09000000E-01  7.20000000E-01
  7.29000000E-01  7.35000000E-01  7.40000000E-01  6.08000000E-01  7.34000000E-01
  7.46000000E-01  7.55000000E-01  7.61000000E-01  7.65000000E-01  7.67000000E-01
  7.60000000E-01  7.49000000E-01  7.33000000E-01  7.08000000E-01  6.48000000E-01
  6.88000000E-01  7.09000000E-01  7.22000000E-01  7.31000000E-01  7.38000000E-01
  7.44000000E-01  6.09000000E-01  7.30000000E-01  7.41000000E-01  7.52000000E-01
  7.58000000E-01  7.63000000E-01  7.66000000E-01  7.58000000E-01  7.48000000E-01
  7.33000000E-01  7.01000000E-01  6.45000000E-01  6.86000000E-01  7.08000000E-01
  7.22000000E-01  7.31000000E-01  7.38000000E-01  7.44000000E-01  6.08000000E-01
  7.28000000E-01  7.32000000E-01  7.32000000E-01  7.32000000E-01  7.32000000E-01
  7.32000000E-01  7.32000000E-01  7.32000000E-01  7.32000000E-01  7.32000000E-01
  7.31000000E-01  7.31000000E-01  7.31000000E-01  7.31000000E-01  7.46000000E-01
  7.37000000E-01  7.46000000E-01  7.51000000E-01  7.55000000E-01  7.58000000E-01
  7.47000000E-01  7.32000000E-01  7.11000000E-01  7.41000000E-01  7.07000000E-01
  7.47000000E-01  7.43000000E-01  7.42000000E-01  7.42000000E-01  7.43000000E-01
  7.44000000E-01  6.05000000E-01  7.24000000E-01  7.26000000E-01  7.26000000E-01
  7.27000000E-01  7.27000000E-01  7.27000000E-01  7.28000000E-01  7.28000000E-01
  7.28000000E-01  7.28000000E-01  7.28000000E-01  7.29000000E-01  7.29000000E-01
  7.29000000E-01  7.29000000E-01  7.29000000E-01  7.29000000E-01  7.29000000E-01
  7.29000000E-01  7.29000000E-01  7.29000000E-01  7.29000000E-01  7.29000000E-01
  7.29000000E-01  7.29000000E-01  7.29000000E-01  7.29000000E-01  7.29000000E-01
  7.29000000E-01  7.29000000E-01  7.29000000E-01  7.29000000E-01  7.29000000E-01
  7.29000000E-01  7.29000000E-01  7.29000000E-01  7.29000000E-01  7.29000000E-01
  7.29000000E-01  7.29000000E-01  7.29000000E-01  7.29000000E-01  7.29000000E-01
  7.29000000E-01  7.29000000E-01  7.29000000E-01  7.29000000E-01  7.29000000E-01
  7.29000000E-01  7.29000000E-01  7.29000000E-01  7.29000000E-01  7.29000000E-01
  7.29000000E-01  7.29000000E-01  7.29000000E-01  7.29000000E-01  7.29000000E-01
  7.29000000E-01  7.29000000E-01  7.29000000E-01  7.29000000E-01  7.29000000E-01
  7.29000000E-01  7.29000000E-01  7.29000000E-01  7.29000000E-01  7.29000000E-01
  7.29000000E-01  7.29000000E-01  7.29000000E-01  7.29000000E-01  7.29000000E-01
  7.29000000E-01  7.29000000E-01  7.29000000E-01  7.29000000E-01  7.29000000E-01
  7.29000000E-01  7.29000000E-01  7.29000000E-01  7.29000000E-01  7.29000000E-01
  7.29000000E-01  7.29000000E-01  7.29000000E-01  7.29000000E-01  7.29000000E-01
  7.29000000E-01  7.29000000E-01  7.29000000E-01  7.29000000E-01  7.29000000E-01
  7.29000000E-01  7.29000000E-01  7.29000000E-01  7.29000000E-01  7.29000000E-01
  7.29000000E-01  7.29000000E-01  7.29000000E-01  7.29000000E-01  7.29000000E-01
  7.29000000E-01  7.29000000E-01  7.29000000E-01  7.29000000E-01  7.29000000E-01
  7.29000000E-01  7.29000000E-01  7.29000000E-01  7.29000000E-01  7.29000000E-01
  1.00000000E+00  1.70400000E+00  3.23000000E-01  3.89000000E-01  4.67000000E-01
  5.67000000E-01  6.36000000E-01  6.64000000E-01  6.96000000E-01  8.79000000E-01
  3.07000000E-01  3.48000000E-01  4.00000000E-01  4.54000000E-01  5.09000000E-01
  5.65000000E-01  6.21000000E-01  6.77000000E-01  2.56000000E-01  3.50000000E-01
  3.64000000E-01  3.62000000E-01  3.62000000E-01  3.62000000E-01  3.62000000E-01
  3.65000000E-01  3.69000000E-01  3.75000000E-01  3.86000000E-01  4.46000000E-01
  4.55000000E-01  4.74000000E-01  4.96000000E-01  5.20000000E-01  5.45000000E-01
  5.70000000E-01  2.45000000E-01  3.22000000E-01  3.55000000E-01  3.59000000E-01
  3.64000000E-01  3.70000000E-01  3.76000000E-01  3.85000000E-01  3.95000000E-01
  4.08000000E-01  3.76000000E-01  4.23000000E-01  4.22000000E-01  4.32000000E-01
  4.45000000E-01  4.59000000E-01  4.75000000E-01  4.91000000E-01  2.28000000E-01
  2.92000000E-01  2.89000000E-01  2.92000000E-01  2.95000000E-01  2.98000000E-01
  3.00000000E-01  3.03000000E-01  3.06000000E-01  3.09000000E-01  3.12000000E-01
  3.15000000E-01  3.18000000E-01  3.21000000E-01  3.24000000E-01  3.61000000E-01
  3.69000000E-01  3.70000000E-01  3.72000000E-01  3.75000000E-01  3.78000000E-01
  3.85000000E-01  3.94000000E-01  4.07000000E-01  5.26000000E-01  6.21000000E-01
  3.36000000E-01  3.54000000E-01  3.71000000E-01  3.86000000E-01  4.02000000E-01
  4.17000000E-01  2.09000000E-01  2.94000000E-01  2.65000000E-01  2.72000000E-01
  2.78000000E-01  2.84000000E-01  2.91000000E-01  2.97000000E-01  3.03000000E-01
  3.10000000E-01  3.16000000E-01  3.22000000E-01  3.29000000E-01  3.35000000E-01
  3.41000000E-01  3.48000000E-01  3.54000000E-01  3.54000000E-01  3.54000000E-01
  3.54000000E-01  3.54000000E-01  3.54000000E-01  3.54000000E-01  3.54000000E-01
  3.54000000E-01  3.54000000E-01  3.54000000E-01  3.54000000E-01  3.54000000E-01
  3.54000000E-01  3.54000000E-01  3.54000000E-01  3.54000000E-01  3.54000000E-01
  3.54000000E-01  3.54000000E-01  3.54000000E-01  3.54000000E-01  3.54000000E-01
  3.54000000E-01  3.54000000E-01  3.54000000E-01  3.54000000E-01  3.54000000E-01
  3.54000000E-01  3.54000000E-01  3.54000000E-01  3.54000000E-01  3.54000000E-01
  3.54000000E-01  3.54000000E-01  3.54000000E-01  3.54000000E-01  3.54000000E-01
  3.54000000E-01  3.54000000E-01  3.54000000E-01  3.54000000E-01  3.54000000E-01
  3.54000000E-01  3.54000000E-01  3.54000000E-01  3.54000000E-01  3.54000000E-01
  3.54000000E-01  3.54000000E-01  3.54000000E-01  3.54000000E-01  3.54000000E-01
  3.54000000E-01  3.54000000E-01  3.54000000E-01  3.54000000E-01  3.54000000E-01
  3.54000000E-01  3.54000000E-01  3.54000000E-01  3.54000000E-01  3.54000000E-01
  3.54000000E-01  3.54000000E-01  3.54000000E-01  3.54000000E-01  3.54000000E-01
  3.54000000E-01  3.54000000E-01  3.54000000E-01  3.54000000E-01  3.54000000E-01
  3.54000000E-01  3.54000000E-01  3.54000000E-01  3.54000000E-01  3.54000000E-01
  3.54000000E-01  3.54000000E-01  3.54000000E-01  3.54000000E-01  3.54000000E-01
  3.54000000E-01  3.54000000E-01  3.54000000E-01  3.54000000E-01  3.54000000E-01
  3.54000000E-01  3.54000000E-01  3.54000000E-01  3.54000000E-01  3.54000000E-01
  3.54000000E-01  3.54000000E-01  3.54000000E-01  3.54000000E-01  3.54000000E-01
  2.74000000E-01  2.96000000E-01  5.80000000E-02  4.40000000E-02  3.90000000E-02
  3.90000000E-02  3.60000000E-02  3.20000000E-02  2.90000000E-02  3.30000000E-02
  5.50000000E-02  3.90000000E-02  3.30000000E-02  3.00000000E-02  2.80000000E-02
  2.60000000E-02  2.50000000E-02  2.50000000E-02  4.50000000E-02  4.40000000E-02
  3.30000000E-02  2.50000000E-02  2.10000000E-02  1.80000000E-02  1.50000000E-02
  1.80000000E-02  2.10000000E-02  2.50000000E-02  3.30000000E-02  5.00000000E-02
  3.80000000E-02  3.10000000E-02  2.70000000E-02  2.40000000E-02  2.20000000E-02
  2.10000000E-02  4.30000000E-02  4.00000000E-02  3.20000000E-02  2.50000000E-02
  2.10000000E-02  1.80000000E-02  1.60000000E-02  1.90000000E-02  2.20000000E-02
  2.80000000E-02  3.10000000E-02  4.70000000E-02  3.40000000E-02  2.80000000E-02
  2.40000000E-02  2.10000000E-02  1.90000000E-02  1.80000000E-02  3.90000000E-02
  3.60000000E-02  2.50000000E-02  2.50000000E-02  2.50000000E-02  2.60000000E-02
  2.60000000E-02  2.60000000E-02  2.70000000E-02  2.70000000E-02  2.70000000E-02
  2.70000000E-02  2.80000000E-02  2.80000000E-02  2.80000000E-02  3.30000000E-02
  3.30000000E-02  2.60000000E-02  2.10000000E-02  1.80000000E-02  1.60000000E-02
  1.80000000E-02  2.20000000E-02  2.60000000E-02  4.90000000E-02  8.20000000E-02
  3.00000000E-02  2.40000000E-02  2.10000000E-02  1.80000000E-02  1.60000000E-02
  1.50000000E-02  3.50000000E-02  3.60000000E-02  2.20000000E-02  2.30000000E-02
  2.40000000E-02  2.40000000E-02  2.50000000E-02  2.50000000E-02  2.60000000E-02
  2.70000000E-02  2.70000000E-02  2.80000000E-02  2.80000000E-02  2.90000000E-02
  3.00000000E-02  3.00000000E-02  3.10000000E-02  3.10000000E-02  3.10000000E-02
  3.10000000E-02  3.10000000E-02  3.10000000E-02  3.10000000E-02  3.10000000E-02
  3.10000000E-02  3.10000000E-02  3.10000000E-02  3.10000000E-02  3.10000000E-02
  3.10000000E-02  3.10000000E-02  3.10000000E-02  3.10000000E-02  3.10000000E-02
  3.10000000E-02  3.10000000E-02  3.10000000E-02  3.10000000E-02  3.10000000E-02
  3.10000000E-02  3.10000000E-02  3.10000000E-02  3.10000000E-02  3.10000000E-02
  3.10000000E-02  3.10000000E-02  3.10000000E-02  3.10000000E-02  3.10000000E-02
  3.10000000E-02  3.10000000E-02  3.10000000E-02  3.10000000E-02  3.10000000E-02
  3.10000000E-02  3.10000000E-02  3.10000000E-02  3.10000000E-02  3.10000000E-02
  3.10000000E-02  3.10000000E-02  3.10000000E-02  3.10000000E-02  3.10000000E-02
  3.10000000E-02  3.10000000E-02  3.10000000E-02  3.10000000E-02  3.10000000E-02
  3.10000000E-02  3.10000000E-02  3.10000000E-02  3.10000000E-02  3.10000000E-02
  3.10000000E-02  3.10000000E-02  3.10000000E-02  3.10000000E-02  3.10000000E-02
  3.10000000E-02  3.10000000E-02  3.10000000E-02  3.10000000E-02  3.10000000E-02
  3.10000000E-02  3.10000000E-02  3.10000000E-02  3.10000000E-02  3.10000000E-02
  3.10000000E-02  3.10000000E-02  3.10000000E-02  3.10000000E-02  3.10000000E-02
  3.10000000E-02  3.10000000E-02  3.10000000E-02  3.10000000E-02  3.10000000E-02
  3.10000000E-02  3.10000000E-02  3.10000000E-02  3.10000000E-02  3.10000000E-02
  3.10000000E-02  3.10000000E-02  3.10000000E-02  3.10000000E-02  3.10000000E-02
  3.10000000E-02  3.10000000E-02  3.10000000E-02  3.10000000E-02  3.10000000E-02
 -5.92770000E-01 -9.17860000E-01 -2.48668000E+00 -8.36430000E-01 -3.18470000E-01
 -4.55790000E-01 -5.70730000E-01 -6.77940000E-01 -7.69860000E-01 -8.51140000E-01
 -1.51908000E+00 -3.18830000E-01 -2.17900000E-01 -3.01260000E-01 -3.72750000E-01
 -4.15890000E-01 -4.45930000E-01 -5.91320000E-01 -9.56370000E-01 -2.88450000E-01
 -4.87320000E-01 -6.34280000E-01 -7.17490000E-01 -7.91980000E-01 -8.68490000E-01
 -9.17520000E-01 -9.54890000E-01 -9.88460000E-01 -1.50055000E+00 -2.92560000E-01
 -2.14960000E-01 -2.91180000E-01 -3.42080000E-01 -3.84480000E-01 -4.34940000E-01
 -5.24310000E-01 -8.10070000E-01 -2.58460000E-01 -4.35550000E-01 -5.32740000E-01
 -6.08450000E-01 -6.10260000E-01 -7.58920000E-01 -8.90130000E-01 -8.45780000E-01
 -8.69340000E-01 -1.38234000E+00 -2.64850000E-01 -1.97280000E-01 -2.65040000E-01
 -2.94470000E-01 -3.16570000E-01 -3.63590000E-01 -4.57840000E-01 -8.61830000E-01
 -1.33004000E+00 -6.82880000E-01 -6.25540000E-01 -6.35430000E-01 -8.79690000E-01
 -9.02690000E-01 -9.59650000E-01 -1.01869000E+00 -6.81170000E-01 -7.96500000E-01
 -9.04950000E-01 -8.34790000E-01 -9.01560000E-01 -9.74130000E-01 -1.03326000E+00
 -7.15490000E-01 -7.83960000E-01 -8.28380000E-01 -5.61040000E-01 -1.03841000E+00
 -8.62500000E-01 -9.59300000E-01 -1.01755000E+00 -7.64900000E-01 -1.29467000E+00
 -1.92740000E-01 -2.56010000E-01 -3.19820000E-01 -1.94660000E-01 -2.60090000E-01
 -4.27990000E-01  0.00000000E+00  0.00000000E+00  0.00000000E+00  0.00000000E+00
  0.00000000E+00  0.00000000E+00  0.00000000E+00  0.00000000E+00  0.00000000E+00
  0.00000000E+00  0.00000000E+00  0.00000000E+00  0.00000000E+00  0.00000000E+00
  0.00000000E+00  0.00000000E+00  0.00000000E+00  0.00000000E+00  0.00000000E+00
  0.00000000E+00  0.00000000E+00  0.00000000E+00  0.00000000E+00  0.00000000E+00
  0.00000000E+00  0.00000000E+00  0.00000000E+00  0.00000000E+00  0.00000000E+00
  0.00000000E+00  0.00000000E+00  0.00000000E+00  0.00000000E+00  0.00000000E+00
  0.00000000E+00  0.00000000E+00  0.00000000E+00  0.00000000E+00  0.00000000E+00
  0.00000000E+00  0.00000000E+00  0.00000000E+00  0.00000000E+00  0.00000000E+00
  0.00000000E+00  0.00000000E+00  0.00000000E+00  0.00000000E+00  0.00000000E+00
  0.00000000E+00  0.00000000E+00  0.00000000E+00  0.00000000E+00  0.00000000E+00
  0.00000000E+00  0.00000000E+00  0.00000000E+00  0.00000000E+00  0.00000000E+00
  0.00000000E+00  0.00000000E+00  0.00000000E+00  0.00000000E+00  0.00000000E+00
  0.00000000E+00  0.00000000E+00  0.00000000E+00  0.00000000E+00  0.00000000E+00
  0.00000000E+00  0.00000000E+00  0.00000000E+00  0.00000000E+00  0.00000000E+00
  0.00000000E+00  0.00000000E+00  0.00000000E+00  0.00000000E+00  0.00000000E+00
  0.00000000E+00  0.00000000E+00  0.00000000E+00  0.00000000E+00  0.00000000E+00
  0.00000000E+00  0.00000000E+00  0.00000000E+00  0.00000000E+00  0.00000000E+00
  0.00000000E+00  0.00000000E+00  0.00000000E+00  0.00000000E+00  0.00000000E+00
  0.00000000E+00  0.00000000E+00  0.00000000E+00  0.00000000E+00  0.00000000E+00
  0.00000000E+00  0.00000000E+00  0.00000000E+00  0.00000000E+00  0.00000000E+00
  0.00000000E+00  0.00000000E+00  0.00000000E+00  0.00000000E+00  0.00000000E+00
  0.00000000E+00  0.00000000E+00  0.00000000E+00  0.00000000E+00  0.00000000E+00
  1.90440000E+00  1.36430000E+00  4.84000000E-01  7.31600000E+00  9.24030000E+00
  8.78200000E+00  5.61290000E+00  4.83340000E+00  3.24870000E+00  2.71090000E+00
  2.01130000E+00  1.50282000E+01  1.46788000E+01  2.13546000E+01  2.38290000E+01
  1.98022000E+01  1.50468000E+01  1.09745000E+01  1.27219000E+01  1.51949000E+01
  1.57342000E+01  2.79222000E+01  1.61366000E+01  2.21252000E+01  2.45676000E+01
  1.96016000E+01  1.79818000E+01  1.72396000E+01  5.01500000E+00  1.92898000E+01
  2.34477000E+01  2.23993000E+01  2.96586000E+01  2.60081000E+01  2.15580000E+01
  1.69594000E+01  1.56479000E+01  1.86897000E+01  1.93530000E+01  3.43444000E+01
  1.98480000E+01  2.72140000E+01  3.02182000E+01  2.41099000E+01  2.21176000E+01
  2.12047000E+01  7.56690000E+00  2.37264000E+01  2.93879000E+01  3.01278000E+01
  4.19382000E+01  3.85203000E+01  3.39511000E+01  2.75774000E+01  1.56460000E+01
  1.04460000E+01  2.01830000E+01  4.99540000E+01  4.76430000E+01  1.18690000E+01
  1.08670000E+01  9.96100000E+00  9.18700000E+00  3.67980000E+01  1.34070000E+01
  9.38200000E+00  9.81700000E+00  8.90800000E+00  8.40700000E+00  8.05800000E+00
  1.29600000E+01  2.67920000E+01  2.49300000E+01  3.45630000E+01  1.11860000E+01
  1.09440000E+01  1.01270000E+01  9.40400000E+00  1.36660000E+01  7.81000000E+00
  6.93600000E+01  5.86630000E+01  4.79690000E+01  4.52740000E+01  3.92290000E+01
  3.30660000E+01  0.00000000E+00  0.00000000E+00  0.00000000E+00  0.00000000E+00
  0.00000000E+00  0.00000000E+00  0.00000000E+00  0.00000000E+00  0.00000000E+00
  0.00000000E+00  0.00000000E+00  0.00000000E+00  0.00000000E+00  0.00000000E+00
  0.00000000E+00  0.00000000E+00  0.00000000E+00  0.00000000E+00  0.00000000E+00
  0.00000000E+00  0.00000000E+00  0.00000000E+00  0.00000000E+00  0.00000000E+00
  0.00000000E+00  0.00000000E+00  0.00000000E+00  0.00000000E+00  0.00000000E+00
  0.00000000E+00  0.00000000E+00  0.00000000E+00  0.00000000E+00  0.00000000E+00
  0.00000000E+00  0.00000000E+00  0.00000000E+00  0.00000000E+00  0.00000000E+00
  0.00000000E+00  0.00000000E+00  0.00000000E+00  0.00000000E+00  0.00000000E+00
  0.00000000E+00  0.00000000E+00  0.00000000E+00  0.00000000E+00  0.00000000E+00
  0.00000000E+00  0.00000000E+00  0.00000000E+00  0.00000000E+00  0.00000000E+00
  0.00000000E+00  0.00000000E+00  0.00000000E+00  0.00000000E+00  0.00000000E+00
  0.00000000E+00  0.00000000E+00  0.00000000E+00  0.00000000E+00  0.00000000E+00
  0.00000000E+00  0.00000000E+00  0.00000000E+00  0.00000000E+00  0.00000000E+00
  0.00000000E+00  0.00000000E+00  0.00000000E+00  0.00000000E+00  0.00000000E+00
  0.00000000E+00  0.00000000E+00  0.00000000E+00  0.00000000E+00  0.00000000E+00
  0.00000000E+00  0.00000000E+00  0.00000000E+00  0.00000000E+00  0.00000000E+00
  0.00000000E+00  0.00000000E+00  0.00000000E+00  0.00000000E+00  0.00000000E+00
  0.00000000E+00  0.00000000E+00  0.00000000E+00  0.00000000E+00  0.00000000E+00
  0.00000000E+00  0.00000000E+00  0.00000000E+00  0.00000000E+00  0.00000000E+00
  0.00000000E+00  0.00000000E+00  0.00000000E+00  0.00000000E+00  0.00000000E+00
  0.00000000E+00  0.00000000E+00  0.00000000E+00  0.00000000E+00  0.00000000E+00
  0.00000000E+00  0.00000000E+00  0.00000000E+00  0.00000000E+00  0.00000000E+00
  0.00000000E+00  0.00000000E+00  0.00000000E+00  0.00000000E+00  0.00000000E+00
  0.00000000E+00  0.00000000E+00  0.00000000E+00  0.00000000E+00  0.00000000E+00
  0.00000000E+00  0.00000000E+00  0.00000000E+00  0.00000000E+00  0.00000000E+00
  0.00000000E+00  0.00000000E+00  0.00000000E+00  0.00000000E+00  0.00000000E+00
  0.00000000E+00  0.00000000E+00  0.00000000E+00  0.00000000E+00  0.00000000E+00
  0.00000000E+00  0.00000000E+00  0.00000000E+00  0.00000000E+00  0.00000000E+00
  0.00000000E+00  0.00000000E+00  0.00000000E+00  0.00000000E+00  0.00000000E+00
  0.00000000E+00  0.00000000E+00  0.00000000E+00  0.00000000E+00  0.00000000E+00
  0.00000000E+00  0.00000000E+00  0.00000000E+00  0.00000000E+00  0.00000000E+00
  0.00000000E+00  0.00000000E+00  0.00000000E+00  0.00000000E+00  0.00000000E+00
  0.00000000E+00  0.00000000E+00  0.00000000E+00  0.00000000E+00  0.00000000E+00
  0.00000000E+00  0.00000000E+00  0.00000000E+00  0.00000000E+00  0.00000000E+00
  0.00000000E+00  0.00000000E+00  0.00000000E+00  0.00000000E+00  0.00000000E+00
  0.00000000E+00  0.00000000E+00  0.00000000E+00  0.00000000E+00  0.00000000E+00
  0.00000000E+00  0.00000000E+00  0.00000000E+00  0.00000000E+00  0.00000000E+00
  0.00000000E+00  0.00000000E+00  0.00000000E+00  0.00000000E+00  0.00000000E+00
  0.00000000E+00  0.00000000E+00  0.00000000E+00  0.00000000E+00  0.00000000E+00
  0.00000000E+00  0.00000000E+00  0.00000000E+00  0.00000000E+00  0.00000000E+00
  0.00000000E+00  0.00000000E+00  0.00000000E+00  0.00000000E+00  0.00000000E+00
  0.00000000E+00  0.00000000E+00  0.00000000E+00  0.00000000E+00  0.00000000E+00
  0.00000000E+00  0.00000000E+00  0.00000000E+00  0.00000000E+00  0.00000000E+00
  0.00000000E+00  0.00000000E+00  0.00000000E+00  0.00000000E+00  0.00000000E+00
  0.00000000E+00  0.00000000E+00  0.00000000E+00  0.00000000E+00  0.00000000E+00
  0.00000000E+00  0.00000000E+00  0.00000000E+00  0.00000000E+00  0.00000000E+00
  0.00000000E+00  0.00000000E+00  0.00000000E+00  0.00000000E+00  0.00000000E+00
  0.00000000E+00  0.00000000E+00  0.00000000E+00  0.00000000E+00  0.00000000E+00
  0.00000000E+00  0.00000000E+00  0.00000000E+00  0.00000000E+00  0.00000000E+00
  0.00000000E+00  0.00000000E+00  0.00000000E+00  0.00000000E+00  0.00000000E+00
  0.00000000E+00  0.00000000E+00  0.00000000E+00  0.00000000E+00  0.00000000E+00
  0.00000000E+00  0.00000000E+00  0.00000000E+00  0.00000000E+00  0.00000000E+00
  0.00000000E+00  0.00000000E+00  0.00000000E+00  0.00000000E+00  0.00000000E+00
  0.00000000E+00  0.00000000E+00  0.00000000E+00  0.00000000E+00  0.00000000E+00
  0.00000000E+00  0.00000000E+00  0.00000000E+00  0.00000000E+00  0.00000000E+00
  0.00000000E+00  0.00000000E+00  0.00000000E+00  0.00000000E+00  0.00000000E+00
  0.00000000E+00  0.00000000E+00  0.00000000E+00  0.00000000E+00  0.00000000E+00
  0.00000000E+00  0.00000000E+00  0.00000000E+00  0.00000000E+00  0.00000000E+00
  0.00000000E+00  0.00000000E+00  0.00000000E+00  0.00000000E+00  0.00000000E+00
  0.00000000E+00  0.00000000E+00  0.00000000E+00  0.00000000E+00  0.00000000E+00
  0.00000000E+00  0.00000000E+00  0.00000000E+00  0.00000000E+00  0.00000000E+00
  0.00000000E+00  0.00000000E+00  0.00000000E+00  0.00000000E+00  0.00000000E+00
  0.00000000E+00  0.00000000E+00  0.00000000E+00  0.00000000E+00  0.00000000E+00
  0.00000000E+00  0.00000000E+00  0.00000000E+00  0.00000000E+00  0.00000000E+00
  0.00000000E+00  0.00000000E+00  0.00000000E+00  0.00000000E+00  0.00000000E+00
  0.00000000E+00  0.00000000E+00  0.00000000E+00  0.00000000E+00  0.00000000E+00
  0.00000000E+00  0.00000000E+00  0.00000000E+00  0.00000000E+00  0.00000000E+00
  0.00000000E+00  0.00000000E+00  0.00000000E+00  0.00000000E+00  0.00000000E+00
  0.00000000E+00  0.00000000E+00  0.00000000E+00  0.00000000E+00  0.00000000E+00
  0.00000000E+00  0.00000000E+00  0.00000000E+00  0.00000000E+00  0.00000000E+00
  0.00000000E+00  0.00000000E+00  0.00000000E+00  0.00000000E+00  0.00000000E+00
  0.00000000E+00  0.00000000E+00  0.00000000E+00  0.00000000E+00  0.00000000E+00
  0.00000000E+00  0.00000000E+00  0.00000000E+00  0.00000000E+00  0.00000000E+00
  0.00000000E+00  0.00000000E+00  0.00000000E+00  0.00000000E+00  0.00000000E+00
  0.00000000E+00  0.00000000E+00  0.00000000E+00  0.00000000E+00  0.00000000E+00
  0.00000000E+00  0.00000000E+00  0.00000000E+00  0.00000000E+00  0.00000000E+00
  0.00000000E+00  0.00000000E+00  0.00000000E+00  0.00000000E+00  0.00000000E+00
  0.00000000E+00  0.00000000E+00  0.00000000E+00  0.00000000E+00  0.00000000E+00
  0.00000000E+00  0.00000000E+00  0.00000000E+00  0.00000000E+00  0.00000000E+00
  0.00000000E+00  0.00000000E+00  0.00000000E+00  0.00000000E+00  0.00000000E+00
  0.00000000E+00  0.00000000E+00  0.00000000E+00  0.00000000E+00  0.00000000E+00
  0.00000000E+00  0.00000000E+00  0.00000000E+00  0.00000000E+00  0.00000000E+00
  0.00000000E+00  0.00000000E+00  0.00000000E+00  0.00000000E+00  0.00000000E+00
  0.00000000E+00  0.00000000E+00  0.00000000E+00  0.00000000E+00  0.00000000E+00
  0.00000000E+00  0.00000000E+00  0.00000000E+00  0.00000000E+00  0.00000000E+00
  0.00000000E+00  0.00000000E+00  0.00000000E+00  0.00000000E+00  0.00000000E+00
  0.00000000E+00  0.00000000E+00  0.00000000E+00  0.00000000E+00  0.00000000E+00
  0.00000000E+00  0.00000000E+00  0.00000000E+00  0.00000000E+00  0.00000000E+00
  0.00000000E+00  0.00000000E+00  0.00000000E+00  0.00000000E+00  0.00000000E+00
  0.00000000E+00  0.00000000E+00  0.00000000E+00  0.00000000E+00  0.00000000E+00
  0.00000000E+00  0.00000000E+00  0.00000000E+00  0.00000000E+00  0.00000000E+00
  0.00000000E+00  0.00000000E+00  0.00000000E+00  0.00000000E+00  0.00000000E+00
  0.00000000E+00  0.00000000E+00  0.00000000E+00  0.00000000E+00  0.00000000E+00
  0.00000000E+00  0.00000000E+00  0.00000000E+00  0.00000000E+00  0.00000000E+00
  0.00000000E+00  0.00000000E+00  0.00000000E+00  0.00000000E+00  0.00000000E+00
  0.00000000E+00  0.00000000E+00  0.00000000E+00  0.00000000E+00  0.00000000E+00
  0.00000000E+00  0.00000000E+00  0.00000000E+00  0.00000000E+00  0.00000000E+00
  0.00000000E+00  0.00000000E+00  0.00000000E+00  0.00000000E+00  0.00000000E+00
  0.00000000E+00  0.00000000E+00  0.00000000E+00  0.00000000E+00  0.00000000E+00
  0.00000000E+00  0.00000000E+00  0.00000000E+00  0.00000000E+00  0.00000000E+00
  0.00000000E+00  0.00000000E+00  0.00000000E+00  0.00000000E+00  0.00000000E+00
  0.00000000E+00  0.00000000E+00  0.00000000E+00  0.00000000E+00  0.00000000E+00
  0.00000000E+00  0.00000000E+00  0.00000000E+00  0.00000000E+00  0.00000000E+00
  0.00000000E+00  0.00000000E+00  0.00000000E+00  0.00000000E+00  0.00000000E+00
  0.00000000E+00  0.00000000E+00  0.00000000E+00  0.00000000E+00  0.00000000E+00
  0.00000000E+00  0.00000000E+00  0.00000000E+00  0.00000000E+00  0.00000000E+00
  0.00000000E+00  0.00000000E+00  0.00000000E+00  0.00000000E+00  0.00000000E+00
  0.00000000E+00  0.00000000E+00  0.00000000E+00  0.00000000E+00  0.00000000E+00
  0.00000000E+00  0.00000000E+00  0.00000000E+00  0.00000000E+00  0.00000000E+00
  0.00000000E+00  0.00000000E+00  0.00000000E+00  0.00000000E+00  0.00000000E+00
  0.00000000E+00  0.00000000E+00  0.00000000E+00  0.00000000E+00  0.00000000E+00
  0.00000000E+00  0.00000000E+00  0.00000000E+00  0.00000000E+00  0.00000000E+00
  0.00000000E+00  0.00000000E+00  0.00000000E+00  0.00000000E+00  0.00000000E+00
  0.00000000E+00  0.00000000E+00  0.00000000E+00  0.00000000E+00  0.00000000E+00
  0.00000000E+00  0.00000000E+00  0.00000000E+00  0.00000000E+00  0.00000000E+00
  0.00000000E+00  0.00000000E+00  0.00000000E+00  0.00000000E+00  0.00000000E+00
  0.00000000E+00  0.00000000E+00  0.00000000E+00  0.00000000E+00  0.00000000E+00
  0.00000000E+00  0.00000000E+00  0.00000000E+00  0.00000000E+00  0.00000000E+00
  0.00000000E+00  0.00000000E+00  0.00000000E+00  0.00000000E+00  0.00000000E+00
  0.00000000E+00  0.00000000E+00  0.00000000E+00  0.00000000E+00  0.00000000E+00
  0.00000000E+00  0.00000000E+00  0.00000000E+00  0.00000000E+00  0.00000000E+00
  0.00000000E+00  0.00000000E+00  0.00000000E+00  0.00000000E+00  0.00000000E+00
  0.00000000E+00  0.00000000E+00  0.00000000E+00  0.00000000E+00  0.00000000E+00
  0.00000000E+00  0.00000000E+00  0.00000000E+00  0.00000000E+00  0.00000000E+00
  0.00000000E+00  0.00000000E+00  0.00000000E+00  0.00000000E+00  0.00000000E+00
  0.00000000E+00  0.00000000E+00  0.00000000E+00  0.00000000E+00  0.00000000E+00
  0.00000000E+00  0.00000000E+00  0.00000000E+00  0.00000000E+00  0.00000000E+00
  0.00000000E+00  0.00000000E+00  0.00000000E+00  0.00000000E+00  0.00000000E+00
  0.00000000E+00  0.00000000E+00  0.00000000E+00  0.00000000E+00  0.00000000E+00
  0.00000000E+00  0.00000000E+00  0.00000000E+00  0.00000000E+00  0.00000000E+00
  0.00000000E+00  0.00000000E+00  0.00000000E+00  0.00000000E+00  0.00000000E+00
  0.00000000E+00  0.00000000E+00  0.00000000E+00  0.00000000E+00  0.00000000E+00
  0.00000000E+00  0.00000000E+00  0.00000000E+00  0.00000000E+00  0.00000000E+00
  0.00000000E+00  0.00000000E+00  0.00000000E+00  0.00000000E+00  0.00000000E+00
  0.00000000E+00  0.00000000E+00  0.00000000E+00  0.00000000E+00  0.00000000E+00
  0.00000000E+00  0.00000000E+00  0.00000000E+00  0.00000000E+00  0.00000000E+00
  0.00000000E+00  0.00000000E+00  0.00000000E+00  0.00000000E+00  0.00000000E+00
  0.00000000E+00  0.00000000E+00  0.00000000E+00  0.00000000E+00  0.00000000E+00
  0.00000000E+00  0.00000000E+00  0.00000000E+00  0.00000000E+00  0.00000000E+00
  0.00000000E+00  0.00000000E+00  0.00000000E+00  0.00000000E+00  0.00000000E+00
  0.00000000E+00  0.00000000E+00  0.00000000E+00  0.00000000E+00  0.00000000E+00
  0.00000000E+00  0.00000000E+00  0.00000000E+00  0.00000000E+00  0.00000000E+00
  0.00000000E+00  0.00000000E+00  0.00000000E+00  0.00000000E+00  0.00000000E+00
  0.00000000E+00  0.00000000E+00  0.00000000E+00  0.00000000E+00  0.00000000E+00
  0.00000000E+00  0.00000000E+00  0.00000000E+00  0.00000000E+00  0.00000000E+00
  0.00000000E+00  0.00000000E+00  0.00000000E+00  0.00000000E+00  0.00000000E+00
  0.00000000E+00  0.00000000E+00  0.00000000E+00  0.00000000E+00  0.00000000E+00
  0.00000000E+00  0.00000000E+00  0.00000000E+00  0.00000000E+00  0.00000000E+00
  0.00000000E+00  0.00000000E+00  0.00000000E+00  0.00000000E+00  0.00000000E+00
  0.00000000E+00  0.00000000E+00  0.00000000E+00  0.00000000E+00  0.00000000E+00
  0.00000000E+00  0.00000000E+00  0.00000000E+00  0.00000000E+00  0.00000000E+00
  0.00000000E+00  0.00000000E+00  0.00000000E+00  0.00000000E+00  0.00000000E+00
  0.00000000E+00  0.00000000E+00  0.00000000E+00  0.00000000E+00  0.00000000E+00
  0.00000000E+00  0.00000000E+00  0.00000000E+00  0.00000000E+00  0.00000000E+00
  0.00000000E+00  0.00000000E+00  0.00000000E+00  0.00000000E+00  0.00000000E+00
  0.00000000E+00  0.00000000E+00  0.00000000E+00  0.00000000E+00  0.00000000E+00
  0.00000000E+00  0.00000000E+00  0.00000000E+00  0.00000000E+00  0.00000000E+00
  0.00000000E+00  0.00000000E+00  0.00000000E+00  0.00000000E+00  0.00000000E+00
  0.00000000E+00  0.00000000E+00  0.00000000E+00  0.00000000E+00  0.00000000E+00
  0.00000000E+00  0.00000000E+00  0.00000000E+00  0.00000000E+00  0.00000000E+00
  0.00000000E+00  0.00000000E+00  0.00000000E+00  0.00000000E+00  0.00000000E+00
  0.00000000E+00  0.00000000E+00  0.00000000E+00  0.00000000E+00  0.00000000E+00
  0.00000000E+00  0.00000000E+00  0.00000000E+00  0.00000000E+00  0.00000000E+00
  0.00000000E+00  0.00000000E+00  0.00000000E+00  0.00000000E+00  0.00000000E+00
  0.00000000E+00  0.00000000E+00  0.00000000E+00  0.00000000E+00  0.00000000E+00
  0.00000000E+00  0.00000000E+00  0.00000000E+00  0.00000000E+00  0.00000000E+00
  0.00000000E+00  0.00000000E+00  0.00000000E+00  0.00000000E+00  0.00000000E+00
  0.00000000E+00  0.00000000E+00  0.00000000E+00  0.00000000E+00  0.00000000E+00
  0.00000000E+00  0.00000000E+00  0.00000000E+00  0.00000000E+00  0.00000000E+00
  0.00000000E+00  0.00000000E+00  0.00000000E+00  0.00000000E+00  0.00000000E+00
  0.00000000E+00  0.00000000E+00  0.00000000E+00  0.00000000E+00  0.00000000E+00
  0.00000000E+00  0.00000000E+00  0.00000000E+00  0.00000000E+00  0.00000000E+00
  0.00000000E+00  0.00000000E+00  0.00000000E+00  0.00000000E+00  0.00000000E+00
  0.00000000E+00  0.00000000E+00  0.00000000E+00  0.00000000E+00  0.00000000E+00
  0.00000000E+00  0.00000000E+00  0.00000000E+00  0.00000000E+00  0.00000000E+00
  0.00000000E+00  0.00000000E+00  0.00000000E+00  0.00000000E+00  0.00000000E+00
  0.00000000E+00  0.00000000E+00  0.00000000E+00  0.00000000E+00  0.00000000E+00
  0.00000000E+00  0.00000000E+00  0.00000000E+00  0.00000000E+00  0.00000000E+00
  0.00000000E+00  0.00000000E+00  0.00000000E+00  0.00000000E+00  0.00000000E+00
  0.00000000E+00  0.00000000E+00  0.00000000E+00  0.00000000E+00  0.00000000E+00
  0.00000000E+00  0.00000000E+00  0.00000000E+00  0.00000000E+00  0.00000000E+00
  0.00000000E+00  0.00000000E+00  0.00000000E+00  0.00000000E+00  0.00000000E+00
  0.00000000E+00  0.00000000E+00  0.00000000E+00  0.00000000E+00  0.00000000E+00
  0.00000000E+00  0.00000000E+00  0.00000000E+00  0.00000000E+00  0.00000000E+00
  0.00000000E+00  0.00000000E+00  0.00000000E+00  0.00000000E+00  0.00000000E+00
  0.00000000E+00  0.00000000E+00  0.00000000E+00  0.00000000E+00  0.00000000E+00
  0.00000000E+00  0.00000000E+00  0.00000000E+00  0.00000000E+00  0.00000000E+00
  0.00000000E+00  0.00000000E+00  0.00000000E+00  0.00000000E+00  0.00000000E+00
  0.00000000E+00  0.00000000E+00  0.00000000E+00  0.00000000E+00  0.00000000E+00
  0.00000000E+00  0.00000000E+00  0.00000000E+00  0.00000000E+00  0.00000000E+00
  0.00000000E+00  0.00000000E+00  0.00000000E+00  0.00000000E+00  0.00000000E+00
  0.00000000E+00  0.00000000E+00  0.00000000E+00  0.00000000E+00  0.00000000E+00
  0.00000000E+00  0.00000000E+00  0.00000000E+00  0.00000000E+00  0.00000000E+00
  0.00000000E+00  0.00000000E+00  0.00000000E+00  0.00000000E+00  0.00000000E+00
  0.00000000E+00  0.00000000E+00  0.00000000E+00  0.00000000E+00  0.00000000E+00
  0.00000000E+00  0.00000000E+00  0.00000000E+00  0.00000000E+00  0.00000000E+00
  0.00000000E+00  0.00000000E+00  0.00000000E+00  0.00000000E+00  0.00000000E+00
  0.00000000E+00  0.00000000E+00  0.00000000E+00  0.00000000E+00  0.00000000E+00
  0.00000000E+00  0.00000000E+00  0.00000000E+00  0.00000000E+00  0.00000000E+00
  0.00000000E+00  0.00000000E+00  0.00000000E+00  0.00000000E+00  0.00000000E+00
  0.00000000E+00  0.00000000E+00  0.00000000E+00  0.00000000E+00  0.00000000E+00
  0.00000000E+00  0.00000000E+00  0.00000000E+00  0.00000000E+00  0.00000000E+00
  0.00000000E+00  0.00000000E+00  0.00000000E+00  0.00000000E+00  0.00000000E+00
  0.00000000E+00  0.00000000E+00  0.00000000E+00  0.00000000E+00  0.00000000E+00
  0.00000000E+00  0.00000000E+00  0.00000000E+00  0.00000000E+00  0.00000000E+00
  0.00000000E+00  0.00000000E+00  0.00000000E+00  0.00000000E+00  0.00000000E+00
  0.00000000E+00  0.00000000E+00  0.00000000E+00  0.00000000E+00  0.00000000E+00
  0.00000000E+00  0.00000000E+00  0.00000000E+00  0.00000000E+00  0.00000000E+00
  0.00000000E+00  0.00000000E+00  0.00000000E+00  0.00000000E+00  0.00000000E+00
  0.00000000E+00  0.00000000E+00  0.00000000E+00  0.00000000E+00  0.00000000E+00
  0.00000000E+00  0.00000000E+00  0.00000000E+00  0.00000000E+00  0.00000000E+00
  0.00000000E+00  0.00000000E+00  0.00000000E+00  0.00000000E+00  0.00000000E+00
  0.00000000E+00  0.00000000E+00  0.00000000E+00  0.00000000E+00  0.00000000E+00
  0.00000000E+00  0.00000000E+00  0.00000000E+00  0.00000000E+00  0.00000000E+00
  0.00000000E+00  0.00000000E+00  0.00000000E+00  0.00000000E+00  0.00000000E+00
  0.00000000E+00  0.00000000E+00  0.00000000E+00  0.00000000E+00  0.00000000E+00
  0.00000000E+00  0.00000000E+00  0.00000000E+00  0.00000000E+00  0.00000000E+00
  0.00000000E+00  0.00000000E+00  0.00000000E+00  0.00000000E+00  0.00000000E+00
  0.00000000E+00  0.00000000E+00  0.00000000E+00  0.00000000E+00  0.00000000E+00
  0.00000000E+00  0.00000000E+00  0.00000000E+00  0.00000000E+00  0.00000000E+00
  0.00000000E+00  0.00000000E+00  0.00000000E+00  0.00000000E+00  0.00000000E+00
  0.00000000E+00  0.00000000E+00  0.00000000E+00  0.00000000E+00  0.00000000E+00
  0.00000000E+00  0.00000000E+00  0.00000000E+00  0.00000000E+00  0.00000000E+00
  0.00000000E+00  0.00000000E+00  0.00000000E+00  0.00000000E+00  0.00000000E+00
  0.00000000E+00  0.00000000E+00  0.00000000E+00  0.00000000E+00  0.00000000E+00
  0.00000000E+00  0.00000000E+00  0.00000000E+00  0.00000000E+00  0.00000000E+00
  0.00000000E+00  0.00000000E+00  0.00000000E+00  0.00000000E+00  0.00000000E+00
  0.00000000E+00  0.00000000E+00  0.00000000E+00  0.00000000E+00  0.00000000E+00
  0.00000000E+00  0.00000000E+00  0.00000000E+00  0.00000000E+00  0.00000000E+00
  0.00000000E+00  0.00000000E+00  0.00000000E+00  0.00000000E+00  0.00000000E+00
  0.00000000E+00  0.00000000E+00  0.00000000E+00  0.00000000E+00  0.00000000E+00
  0.00000000E+00  0.00000000E+00  0.00000000E+00  0.00000000E+00  0.00000000E+00
  0.00000000E+00  0.00000000E+00  0.00000000E+00  0.00000000E+00  0.00000000E+00
  0.00000000E+00  0.00000000E+00  0.00000000E+00  0.00000000E+00  0.00000000E+00
  0.00000000E+00  0.00000000E+00  0.00000000E+00  0.00000000E+00  0.00000000E+00
  0.00000000E+00  0.00000000E+00  0.00000000E+00  0.00000000E+00  0.00000000E+00
  0.00000000E+00  0.00000000E+00  0.00000000E+00  0.00000000E+00  0.00000000E+00
  0.00000000E+00  0.00000000E+00  0.00000000E+00  0.00000000E+00  0.00000000E+00
  0.00000000E+00  0.00000000E+00  0.00000000E+00  0.00000000E+00  0.00000000E+00
  0.00000000E+00  0.00000000E+00  0.00000000E+00  0.00000000E+00  0.00000000E+00
  0.00000000E+00  0.00000000E+00  0.00000000E+00  0.00000000E+00  0.00000000E+00
  0.00000000E+00  0.00000000E+00  0.00000000E+00  0.00000000E+00  0.00000000E+00
  0.00000000E+00  0.00000000E+00  0.00000000E+00  0.00000000E+00  0.00000000E+00
  0.00000000E+00  0.00000000E+00  0.00000000E+00  0.00000000E+00  0.00000000E+00
  0.00000000E+00  0.00000000E+00  0.00000000E+00  0.00000000E+00  0.00000000E+00
  0.00000000E+00  0.00000000E+00  0.00000000E+00  0.00000000E+00  0.00000000E+00
  0.00000000E+00  0.00000000E+00  0.00000000E+00  0.00000000E+00  0.00000000E+00
  0.00000000E+00  0.00000000E+00  0.00000000E+00  0.00000000E+00  0.00000000E+00
  0.00000000E+00  0.00000000E+00  0.00000000E+00  0.00000000E+00  0.00000000E+00
  0.00000000E+00  0.00000000E+00  0.00000000E+00  0.00000000E+00  0.00000000E+00
  0.00000000E+00  0.00000000E+00  0.00000000E+00  0.00000000E+00  0.00000000E+00
  0.00000000E+00  0.00000000E+00  0.00000000E+00  0.00000000E+00  0.00000000E+00
  0.00000000E+00  0.00000000E+00  0.00000000E+00  0.00000000E+00  0.00000000E+00
  0.00000000E+00  0.00000000E+00  0.00000000E+00  0.00000000E+00  0.00000000E+00
  0.00000000E+00  0.00000000E+00  0.00000000E+00  0.00000000E+00  0.00000000E+00
  0.00000000E+00  0.00000000E+00  0.00000000E+00  0.00000000E+00  0.00000000E+00
  0.00000000E+00  0.00000000E+00  0.00000000E+00  0.00000000E+00  0.00000000E+00
  0.00000000E+00  0.00000000E+00  0.00000000E+00  0.00000000E+00  0.00000000E+00
  0.00000000E+00  0.00000000E+00  0.00000000E+00  0.00000000E+00  0.00000000E+00
  0.00000000E+00  0.00000000E+00  0.00000000E+00  0.00000000E+00  0.00000000E+00
  0.00000000E+00  0.00000000E+00  0.00000000E+00  0.00000000E+00  0.00000000E+00
  0.00000000E+00  0.00000000E+00  0.00000000E+00  0.00000000E+00  0.00000000E+00
  0.00000000E+00  0.00000000E+00  0.00000000E+00  0.00000000E+00  0.00000000E+00
  0.00000000E+00  0.00000000E+00  0.00000000E+00  0.00000000E+00  0.00000000E+00
  0.00000000E+00  0.00000000E+00  0.00000000E+00  0.00000000E+00  0.00000000E+00
  0.00000000E+00  0.00000000E+00  0.00000000E+00  0.00000000E+00  0.00000000E+00
  0.00000000E+00  0.00000000E+00  0.00000000E+00  0.00000000E+00  0.00000000E+00
  0.00000000E+00  0.00000000E+00  0.00000000E+00  0.00000000E+00  0.00000000E+00
  0.00000000E+00  0.00000000E+00  0.00000000E+00  0.00000000E+00  0.00000000E+00
  0.00000000E+00  0.00000000E+00  0.00000000E+00  0.00000000E+00  0.00000000E+00
  0.00000000E+00  0.00000000E+00  0.00000000E+00  0.00000000E+00  0.00000000E+00
  0.00000000E+00  0.00000000E+00  0.00000000E+00  0.00000000E+00  0.00000000E+00
  0.00000000E+00  0.00000000E+00  0.00000000E+00  0.00000000E+00  0.00000000E+00
  0.00000000E+00  0.00000000E+00  0.00000000E+00  0.00000000E+00  0.00000000E+00
  0.00000000E+00  0.00000000E+00  0.00000000E+00  0.00000000E+00  0.00000000E+00
  0.00000000E+00  0.00000000E+00  0.00000000E+00  0.00000000E+00  0.00000000E+00
  0.00000000E+00  0.00000000E+00  0.00000000E+00  0.00000000E+00  0.00000000E+00
  0.00000000E+00  0.00000000E+00  0.00000000E+00  0.00000000E+00  0.00000000E+00
  0.00000000E+00  0.00000000E+00  0.00000000E+00  0.00000000E+00  0.00000000E+00
  0.00000000E+00  0.00000000E+00  0.00000000E+00  0.00000000E+00  0.00000000E+00
  0.00000000E+00  0.00000000E+00  0.00000000E+00  0.00000000E+00  0.00000000E+00
  0.00000000E+00  0.00000000E+00  0.00000000E+00  0.00000000E+00  0.00000000E+00
  0.00000000E+00  0.00000000E+00  0.00000000E+00  0.00000000E+00  0.00000000E+00
  0.00000000E+00  0.00000000E+00  0.00000000E+00  0.00000000E+00  0.00000000E+00
  0.00000000E+00  0.00000000E+00  0.00000000E+00  0.00000000E+00  0.00000000E+00
  0.00000000E+00  0.00000000E+00  0.00000000E+00  0.00000000E+00  0.00000000E+00
  0.00000000E+00  0.00000000E+00  0.00000000E+00  0.00000000E+00  0.00000000E+00
  0.00000000E+00  0.00000000E+00  0.00000000E+00  0.00000000E+00  0.00000000E+00
  0.00000000E+00  0.00000000E+00  0.00000000E+00  0.00000000E+00  0.00000000E+00
  0.00000000E+00  0.00000000E+00  0.00000000E+00  0.00000000E+00  0.00000000E+00
  0.00000000E+00  0.00000000E+00  0.00000000E+00  0.00000000E+00  0.00000000E+00
  0.00000000E+00  0.00000000E+00  0.00000000E+00  0.00000000E+00  0.00000000E+00
  0.00000000E+00  0.00000000E+00  0.00000000E+00  0.00000000E+00  0.00000000E+00
  0.00000000E+00  0.00000000E+00  0.00000000E+00  0.00000000E+00  0.00000000E+00
  0.00000000E+00  0.00000000E+00  0.00000000E+00  0.00000000E+00  0.00000000E+00
  0.00000000E+00  0.00000000E+00  0.00000000E+00  0.00000000E+00  0.00000000E+00
  0.00000000E+00  0.00000000E+00  0.00000000E+00  0.00000000E+00  0.00000000E+00
  0.00000000E+00  0.00000000E+00  0.00000000E+00  0.00000000E+00  0.00000000E+00
  0.00000000E+00  0.00000000E+00  0.00000000E+00  0.00000000E+00  0.00000000E+00
  0.00000000E+00  0.00000000E+00  0.00000000E+00  0.00000000E+00  0.00000000E+00
  0.00000000E+00  0.00000000E+00  0.00000000E+00  0.00000000E+00  0.00000000E+00
  0.00000000E+00  0.00000000E+00  0.00000000E+00  0.00000000E+00  0.00000000E+00
  0.00000000E+00  0.00000000E+00  0.00000000E+00  0.00000000E+00  0.00000000E+00
  0.00000000E+00  0.00000000E+00  0.00000000E+00  0.00000000E+00  0.00000000E+00
  0.00000000E+00  0.00000000E+00  0.00000000E+00  0.00000000E+00  0.00000000E+00
  0.00000000E+00  0.00000000E+00  0.00000000E+00  0.00000000E+00  0.00000000E+00
  0.00000000E+00  0.00000000E+00  0.00000000E+00  0.00000000E+00  0.00000000E+00
  0.00000000E+00  0.00000000E+00  0.00000000E+00  0.00000000E+00  0.00000000E+00
  0.00000000E+00  0.00000000E+00  0.00000000E+00  0.00000000E+00  0.00000000E+00
  0.00000000E+00  0.00000000E+00  0.00000000E+00  0.00000000E+00  0.00000000E+00
  0.00000000E+00  0.00000000E+00  0.00000000E+00  0.00000000E+00  0.00000000E+00
  0.00000000E+00  0.00000000E+00  0.00000000E+00  0.00000000E+00  0.00000000E+00
  0.00000000E+00  0.00000000E+00  0.00000000E+00  0.00000000E+00  0.00000000E+00
  0.00000000E+00  0.00000000E+00  0.00000000E+00  0.00000000E+00  0.00000000E+00
  0.00000000E+00  0.00000000E+00  0.00000000E+00  0.00000000E+00  0.00000000E+00
  0.00000000E+00  0.00000000E+00  0.00000000E+00  0.00000000E+00  0.00000000E+00
  0.00000000E+00  0.00000000E+00  0.00000000E+00  0.00000000E+00  0.00000000E+00
  0.00000000E+00  0.00000000E+00  0.00000000E+00  0.00000000E+00  0.00000000E+00
  0.00000000E+00  0.00000000E+00  0.00000000E+00  0.00000000E+00  0.00000000E+00
  0.00000000E+00  0.00000000E+00  0.00000000E+00  0.00000000E+00  0.00000000E+00
  0.00000000E+00  0.00000000E+00  0.00000000E+00  0.00000000E+00  0.00000000E+00
  0.00000000E+00  0.00000000E+00  0.00000000E+00  0.00000000E+00  0.00000000E+00
  0.00000000E+00  0.00000000E+00  0.00000000E+00  0.00000000E+00  0.00000000E+00
  0.00000000E+00  0.00000000E+00  0.00000000E+00  0.00000000E+00  0.00000000E+00
  0.00000000E+00  0.00000000E+00  0.00000000E+00  0.00000000E+00  0.00000000E+00
  0.00000000E+00  0.00000000E+00  0.00000000E+00  0.00000000E+00  0.00000000E+00
  0.00000000E+00  0.00000000E+00  0.00000000E+00  0.00000000E+00  0.00000000E+00
  0.00000000E+00  0.00000000E+00  0.00000000E+00  0.00000000E+00  0.00000000E+00
  0.00000000E+00  0.00000000E+00  0.00000000E+00  0.00000000E+00  0.00000000E+00
  0.00000000E+00  0.00000000E+00  0.00000000E+00  0.00000000E+00  0.00000000E+00
  0.00000000E+00  0.00000000E+00  0.00000000E+00  0.00000000E+00  0.00000000E+00
  0.00000000E+00  0.00000000E+00  0.00000000E+00  0.00000000E+00  0.00000000E+00
  0.00000000E+00  0.00000000E+00  0.00000000E+00  0.00000000E+00  0.00000000E+00
  0.00000000E+00  0.00000000E+00  0.00000000E+00  0.00000000E+00  0.00000000E+00
  0.00000000E+00  0.00000000E+00  0.00000000E+00  0.00000000E+00  0.00000000E+00
  0.00000000E+00  0.00000000E+00  0.00000000E+00  0.00000000E+00  0.00000000E+00
  0.00000000E+00  0.00000000E+00  0.00000000E+00  0.00000000E+00  0.00000000E+00
  0.00000000E+00  0.00000000E+00  0.00000000E+00  0.00000000E+00  0.00000000E+00
  0.00000000E+00  0.00000000E+00  0.00000000E+00  0.00000000E+00  0.00000000E+00
  0.00000000E+00  0.00000000E+00  0.00000000E+00  0.00000000E+00  0.00000000E+00
  0.00000000E+00  0.00000000E+00  0.00000000E+00  0.00000000E+00  0.00000000E+00
  0.00000000E+00  0.00000000E+00  0.00000000E+00  0.00000000E+00  0.00000000E+00
  0.00000000E+00  0.00000000E+00  0.00000000E+00  0.00000000E+00  0.00000000E+00
  0.00000000E+00  0.00000000E+00  0.00000000E+00  0.00000000E+00  0.00000000E+00
  0.00000000E+00  0.00000000E+00  0.00000000E+00  0.00000000E+00  0.00000000E+00
  0.00000000E+00  0.00000000E+00  0.00000000E+00  0.00000000E+00  0.00000000E+00
  0.00000000E+00  0.00000000E+00  0.00000000E+00  0.00000000E+00  0.00000000E+00
  0.00000000E+00  0.00000000E+00  0.00000000E+00  0.00000000E+00  0.00000000E+00
  0.00000000E+00  0.00000000E+00  0.00000000E+00  0.00000000E+00  0.00000000E+00
  0.00000000E+00  0.00000000E+00  0.00000000E+00  0.00000000E+00  0.00000000E+00
  0.00000000E+00  0.00000000E+00  0.00000000E+00  0.00000000E+00  0.00000000E+00
  0.00000000E+00  0.00000000E+00  0.00000000E+00  0.00000000E+00  0.00000000E+00
  0.00000000E+00  0.00000000E+00  0.00000000E+00  0.00000000E+00  0.00000000E+00
  0.00000000E+00  0.00000000E+00  0.00000000E+00  0.00000000E+00  0.00000000E+00
  0.00000000E+00  0.00000000E+00  0.00000000E+00  0.00000000E+00  0.00000000E+00
  0.00000000E+00  0.00000000E+00  0.00000000E+00  0.00000000E+00  0.00000000E+00
  0.00000000E+00  0.00000000E+00  0.00000000E+00  0.00000000E+00  0.00000000E+00
  0.00000000E+00  0.00000000E+00  0.00000000E+00  0.00000000E+00  0.00000000E+00
  0.00000000E+00  0.00000000E+00  0.00000000E+00  0.00000000E+00  0.00000000E+00
  0.00000000E+00  0.00000000E+00  0.00000000E+00  0.00000000E+00  0.00000000E+00
  0.00000000E+00  0.00000000E+00  0.00000000E+00  0.00000000E+00  0.00000000E+00
  0.00000000E+00  0.00000000E+00  0.00000000E+00  0.00000000E+00  0.00000000E+00
  0.00000000E+00  0.00000000E+00  0.00000000E+00  0.00000000E+00  0.00000000E+00
  0.00000000E+00  0.00000000E+00  0.00000000E+00  0.00000000E+00  0.00000000E+00
  0.00000000E+00  0.00000000E+00  0.00000000E+00  0.00000000E+00  0.00000000E+00
  0.00000000E+00  0.00000000E+00  0.00000000E+00  0.00000000E+00  0.00000000E+00
  0.00000000E+00  0.00000000E+00  0.00000000E+00  0.00000000E+00  0.00000000E+00
  0.00000000E+00  0.00000000E+00  0.00000000E+00  0.00000000E+00  0.00000000E+00
  0.00000000E+00  0.00000000E+00  0.00000000E+00  0.00000000E+00  0.00000000E+00
  0.00000000E+00  0.00000000E+00  0.00000000E+00  0.00000000E+00  0.00000000E+00
  0.00000000E+00  0.00000000E+00  0.00000000E+00  0.00000000E+00  0.00000000E+00
  0.00000000E+00  0.00000000E+00  0.00000000E+00  0.00000000E+00  0.00000000E+00
  0.00000000E+00  0.00000000E+00  0.00000000E+00  0.00000000E+00  0.00000000E+00
  0.00000000E+00  0.00000000E+00  0.00000000E+00  0.00000000E+00  0.00000000E+00
  0.00000000E+00  0.00000000E+00  0.00000000E+00  0.00000000E+00  0.00000000E+00
  0.00000000E+00  0.00000000E+00  0.00000000E+00  0.00000000E+00  0.00000000E+00
  0.00000000E+00  0.00000000E+00  0.00000000E+00  0.00000000E+00  0.00000000E+00
  0.00000000E+00  0.00000000E+00  0.00000000E+00  0.00000000E+00  0.00000000E+00
  0.00000000E+00  0.00000000E+00  0.00000000E+00  0.00000000E+00  0.00000000E+00
  0.00000000E+00  0.00000000E+00  0.00000000E+00  0.00000000E+00  0.00000000E+00
  0.00000000E+00  0.00000000E+00  0.00000000E+00  0.00000000E+00  0.00000000E+00
  0.00000000E+00  0.00000000E+00  0.00000000E+00  0.00000000E+00  0.00000000E+00
Gaussian Version                           C   N=           2
ES64L-G16RevC.02        
