%chk=hcl_sto3g.chk
%mem=8GB
%nprocshared=8
#p hf/sto-3g opt=tight freq pop=full scf=tight

HCl RHF opt+freq  /  STO-3G

0 1
Cl
H 1 1.30

--Link1--
%chk=hcl_631g.chk
%mem=8GB
%nprocshared=8
#p hf/6-31g opt=tight freq pop=full scf=tight

HCl RHF opt+freq  /  6-31G

0 1
Cl
H 1 1.28

--Link1--
%chk=hcl_ccpvdz.chk
%mem=8GB
%nprocshared=8
#p hf/cc-pVDZ opt=tight freq pop=full scf=tight

HCl RHF opt+freq  /  cc-pVDZ

0 1
Cl
H 1 1.28

--Link1--
%chk=hcl_6311pgd.chk
%mem=8GB
%nprocshared=8
#p hf/6-311+g(d) opt=tight freq pop=full scf=tight

HCl RHF opt+freq  /  6-311+G(d)   <-- 这个用于 Ex1-2) 轨道能级图

0 1
Cl
H 1 1.27

--Link1--
%chk=hcl_ccpvtz.chk
%mem=8GB
%nprocshared=8
#p hf/cc-pVTZ opt=tight freq pop=full scf=tight

HCl RHF opt+freq  /  cc-pVTZ

0 1
Cl
H 1 1.27

--Link1--
%chk=hcl_ccpvqz.chk
%mem=12GB
%nprocshared=8
#p hf/cc-pVQZ opt=tight freq pop=full scf=tight

HCl RHF opt+freq  /  cc-pVQZ

0 1
Cl
H 1 1.27

