13
* (null), Energy   -1000.0000000
C     0.023054   -1.862192    0.002228   -0.000941    0.042944    0.015657
C     0.007635   -1.169864    1.213846   -0.007342    0.328387   -0.130967
C    -0.023276    0.222314    1.206300   -0.005225    0.238856   -0.238542
C    -0.039401    0.950313    0.003225    0.000966   -0.037236   -0.425452
C    -0.023619    0.241443   -1.204417    0.005719   -0.259561   -0.481679
C     0.007337   -1.151396   -1.201584    0.007663   -0.342394   -0.206890
H     0.047351   -2.952119    0.003466   -0.000999    0.043165    0.404577
H     0.019402   -1.699927    2.166410   -0.010014    0.437785   -0.073445
H    -0.036177    0.809270   -2.135644    0.010387   -0.484012   -0.623947
H     0.019365   -1.687130   -2.151890    0.013883   -0.624561   -0.051903
O    -0.069528    2.307867   -0.029420    0.000815   -0.044025    0.481917
H    -0.076171    2.621917    0.899011    0.021356   -0.896168    0.789400
Cl   -0.043294    1.126054    2.705205   -0.001636    0.073018    0.267176
13
* Frequency(12)  484.3676
C     0.022947   -1.857312    0.004007   -0.000941    0.042944    0.015657
C     0.006801   -1.132544    1.198963   -0.007342    0.328387   -0.130967
C    -0.023870    0.249459    1.179191   -0.005225    0.238856   -0.238542
C    -0.039291    0.946081   -0.045126    0.000966   -0.037236   -0.425452
C    -0.022969    0.211946   -1.259158    0.005719   -0.259561   -0.481679
C     0.008208   -1.190308   -1.225096    0.007663   -0.342394   -0.206890
H     0.047237   -2.947213    0.049445   -0.000999    0.043165    0.404577
H     0.018264   -1.650175    2.158063   -0.010014    0.437785   -0.073445
H    -0.034996    0.754265   -2.206553    0.010387   -0.484012   -0.623947
H     0.020943   -1.758108   -2.157789    0.013883   -0.624561   -0.051903
O    -0.069435    2.302863    0.025347    0.000815   -0.044025    0.481917
H    -0.073744    2.520072    0.988722    0.021356   -0.896168    0.789400
Cl   -0.043480    1.134352    2.735568   -0.001636    0.073018    0.267176
13
* Frequency(12)  484.3676
C     0.022852   -1.852960    0.005593   -0.000941    0.042944    0.015657
C     0.006057   -1.099269    1.185692   -0.007342    0.328387   -0.130967
C    -0.024399    0.273663    1.155020   -0.005225    0.238856   -0.238542
C    -0.039194    0.942308   -0.088237    0.000966   -0.037236   -0.425452
C    -0.022389    0.185644   -1.307966    0.005719   -0.259561   -0.481679
C     0.008984   -1.225002   -1.246061    0.007663   -0.342394   -0.206890
H     0.047136   -2.942840    0.090440   -0.000999    0.043165    0.404577
H     0.017250   -1.605815    2.150621   -0.010014    0.437785   -0.073445
H    -0.033944    0.705220   -2.269777    0.010387   -0.484012   -0.623947
H     0.022350   -1.821395   -2.163048    0.013883   -0.624561   -0.051903
O    -0.069353    2.298402    0.074180    0.000815   -0.044025    0.481917
H    -0.071580    2.429263    1.068712    0.021356   -0.896168    0.789400
Cl   -0.043646    1.141751    2.762641   -0.001636    0.073018    0.267176
13
* Frequency(12)  484.3676
C     0.022778   -1.849609    0.006815   -0.000941    0.042944    0.015657
C     0.005484   -1.073644    1.175472   -0.007342    0.328387   -0.130967
C    -0.024807    0.292301    1.136406   -0.005225    0.238856   -0.238542
C    -0.039118    0.939403   -0.121436    0.000966   -0.037236   -0.425452
C    -0.021943    0.165390   -1.345553    0.005719   -0.259561   -0.481679
C     0.009582   -1.251721   -1.262205    0.007663   -0.342394   -0.206890
H     0.047058   -2.939471    0.122011   -0.000999    0.043165    0.404577
H     0.016468   -1.571653    2.144890   -0.010014    0.437785   -0.073445
H    -0.033133    0.667451   -2.318466    0.010387   -0.484012   -0.623947
H     0.023433   -1.870132   -2.167098    0.013883   -0.624561   -0.051903
O    -0.069289    2.294967    0.111786    0.000815   -0.044025    0.481917
H    -0.069914    2.359332    1.130311    0.021356   -0.896168    0.789400
Cl   -0.043773    1.147449    2.783489   -0.001636    0.073018    0.267176
13
* Frequency(12)  484.3676
C     0.022735   -1.847622    0.007540   -0.000941    0.042944    0.015657
C     0.005144   -1.058445    1.169411   -0.007342    0.328387   -0.130967
C    -0.025049    0.303356    1.125365   -0.005225    0.238856   -0.238542
C    -0.039073    0.937679   -0.141127    0.000966   -0.037236   -0.425452
C    -0.021678    0.153377   -1.367846    0.005719   -0.259561   -0.481679
C     0.009937   -1.267567   -1.271780    0.007663   -0.342394   -0.206890
H     0.047012   -2.937473    0.140735   -0.000999    0.043165    0.404577
H     0.016005   -1.551391    2.141491   -0.010014    0.437785   -0.073445
H    -0.032652    0.645050   -2.347343    0.010387   -0.484012   -0.623947
H     0.024075   -1.899038   -2.169500    0.013883   -0.624561   -0.051903
O    -0.069251    2.292929    0.134090    0.000815   -0.044025    0.481917
H    -0.068925    2.317856    1.166846    0.021356   -0.896168    0.789400
Cl   -0.043849    1.150828    2.795855   -0.001636    0.073018    0.267176
13
* Frequency(12)  484.3676
C     0.022726   -1.847213    0.007689   -0.000941    0.042944    0.015657
C     0.005074   -1.055321    1.168164   -0.007342    0.328387   -0.130967
C    -0.025099    0.305629    1.123096   -0.005225    0.238856   -0.238542
C    -0.039064    0.937325   -0.145175    0.000966   -0.037236   -0.425452
C    -0.021624    0.150907   -1.372429    0.005719   -0.259561   -0.481679
C     0.010010   -1.270825   -1.273749    0.007663   -0.342394   -0.206890
H     0.047002   -2.937063    0.144585   -0.000999    0.043165    0.404577
H     0.015910   -1.547226    2.140792   -0.010014    0.437785   -0.073445
H    -0.032554    0.640445   -2.353280    0.010387   -0.484012   -0.623947
H     0.024208   -1.904980   -2.169994    0.013883   -0.624561   -0.051903
O    -0.069244    2.292510    0.138675    0.000815   -0.044025    0.481917
H    -0.068722    2.309329    1.174357    0.021356   -0.896168    0.789400
Cl   -0.043865    1.151523    2.798397   -0.001636    0.073018    0.267176
13
* Frequency(12)  484.3676
C     0.022753   -1.848428    0.007246   -0.000941    0.042944    0.015657
C     0.005282   -1.064609    1.171869   -0.007342    0.328387   -0.130967
C    -0.024951    0.298873    1.129843   -0.005225    0.238856   -0.238542
C    -0.039092    0.938378   -0.133142    0.000966   -0.037236   -0.425452
C    -0.021785    0.158249   -1.358805    0.005719   -0.259561   -0.481679
C     0.009793   -1.261141   -1.267897    0.007663   -0.342394   -0.206890
H     0.047031   -2.938284    0.133142   -0.000999    0.043165    0.404577
H     0.016193   -1.559608    2.142869   -0.010014    0.437785   -0.073445
H    -0.032847    0.654135   -2.335632    0.010387   -0.484012   -0.623947
H     0.023815   -1.887315   -2.168526    0.013883   -0.624561   -0.051903
O    -0.069267    2.293756    0.125044    0.000815   -0.044025    0.481917
H    -0.069326    2.334676    1.152030    0.021356   -0.896168    0.789400
Cl   -0.043818    1.149457    2.790840   -0.001636    0.073018    0.267176
13
* Frequency(12)  484.3676
C     0.022812   -1.851134    0.006259   -0.000941    0.042944    0.015657
C     0.005745   -1.085303    1.180122   -0.007342    0.328387   -0.130967
C    -0.024621    0.283821    1.144875   -0.005225    0.238856   -0.238542
C    -0.039152    0.940725   -0.106331    0.000966   -0.037236   -0.425452
C    -0.022146    0.174606   -1.328451    0.005719   -0.259561   -0.481679
C     0.009310   -1.239564   -1.254859    0.007663   -0.342394   -0.206890
H     0.047094   -2.941004    0.107646   -0.000999    0.043165    0.404577
H     0.016824   -1.587196    2.147498   -0.010014    0.437785   -0.073445
H    -0.033502    0.684636   -2.296313    0.010387   -0.484012   -0.623947
H     0.022940   -1.847957   -2.165255    0.013883   -0.624561   -0.051903
O    -0.069318    2.296530    0.094675    0.000815   -0.044025    0.481917
H    -0.070672    2.391150    1.102284    0.021356   -0.896168    0.789400
Cl   -0.043715    1.144856    2.774003   -0.001636    0.073018    0.267176
13
* Frequency(12)  484.3676
C     0.022897   -1.855038    0.004836   -0.000941    0.042944    0.015657
C     0.006412   -1.115161    1.192030   -0.007342    0.328387   -0.130967
C    -0.024146    0.262104    1.166564   -0.005225    0.238856   -0.238542
C    -0.039240    0.944110   -0.067648    0.000966   -0.037236   -0.425452
C    -0.022666    0.198205   -1.284656    0.005719   -0.259561   -0.481679
C     0.008613   -1.208433   -1.236049    0.007663   -0.342394   -0.206890
H     0.047184   -2.944928    0.070862   -0.000999    0.043165    0.404577
H     0.017734   -1.627000    2.154175   -0.010014    0.437785   -0.073445
H    -0.034446    0.728643   -2.239582    0.010387   -0.484012   -0.623947
H     0.021678   -1.791171   -2.160536    0.013883   -0.624561   -0.051903
O    -0.069392    2.300533    0.050858    0.000815   -0.044025    0.481917
H    -0.072614    2.472632    1.030510    0.021356   -0.896168    0.789400
Cl   -0.043566    1.138217    2.749711   -0.001636    0.073018    0.267176
13
* Frequency(12)  484.3676
C     0.023000   -1.859718    0.003130   -0.000941    0.042944    0.015657
C     0.007212   -1.150946    1.206302   -0.007342    0.328387   -0.130967
C    -0.023577    0.236075    1.192558   -0.005225    0.238856   -0.238542
C    -0.039345    0.948168   -0.021285    0.000966   -0.037236   -0.425452
C    -0.023289    0.226491   -1.232166    0.005719   -0.259561   -0.481679
C     0.007778   -1.171121   -1.213503    0.007663   -0.342394   -0.206890
H     0.047293   -2.949632    0.026773   -0.000999    0.043165    0.404577
H     0.018825   -1.674707    2.162179   -0.010014    0.437785   -0.073445
H    -0.035578    0.781387   -2.171589    0.010387   -0.484012   -0.623947
H     0.020165   -1.723110   -2.154880    0.013883   -0.624561   -0.051903
O    -0.069481    2.305330   -0.001658    0.000815   -0.044025    0.481917
H    -0.074941    2.570290    0.944487    0.021356   -0.896168    0.789400
Cl   -0.043388    1.130260    2.720596   -0.001636    0.073018    0.267176
13
* Frequency(12)  484.3676
C     0.023109   -1.864666    0.001326   -0.000941    0.042944    0.015657
C     0.008058   -1.188781    1.221391   -0.007342    0.328387   -0.130967
C    -0.022975    0.208554    1.220042   -0.005225    0.238856   -0.238542
C    -0.039457    0.952458    0.027734    0.000966   -0.037236   -0.425452
C    -0.023948    0.256396   -1.176669    0.005719   -0.259561   -0.481679
C     0.006895   -1.131672   -1.189666    0.007663   -0.342394   -0.206890
H     0.047408   -2.954605   -0.019840   -0.000999    0.043165    0.404577
H     0.019979   -1.725147    2.170641   -0.010014    0.437785   -0.073445
H    -0.036775    0.837153   -2.099700    0.010387   -0.484012   -0.623947
H     0.018565   -1.651151   -2.148900    0.013883   -0.624561   -0.051903
O    -0.069575    2.310403   -0.057182    0.000815   -0.044025    0.481917
H    -0.077401    2.673543    0.853535    0.021356   -0.896168    0.789400
Cl   -0.043200    1.121847    2.689813   -0.001636    0.073018    0.267176
13
* Frequency(12)  484.3676
C     0.023211   -1.869346   -0.000381   -0.000941    0.042944    0.015657
C     0.008858   -1.224567    1.235663   -0.007342    0.328387   -0.130967
C    -0.022405    0.182525    1.246037   -0.005225    0.238856   -0.238542
C    -0.039562    0.956516    0.074097    0.000966   -0.037236   -0.425452
C    -0.024571    0.284681   -1.124178    0.005719   -0.259561   -0.481679
C     0.006060   -1.094360   -1.167120    0.007663   -0.342394   -0.206890
H     0.047517   -2.959309   -0.063929   -0.000999    0.043165    0.404577
H     0.021070   -1.772854    2.178644   -0.010014    0.437785   -0.073445
H    -0.037907    0.889898   -2.031706    0.010387   -0.484012   -0.623947
H     0.017053   -1.583090   -2.143244    0.013883   -0.624561   -0.051903
O    -0.069664    2.315200   -0.109699    0.000815   -0.044025    0.481917
H    -0.079729    2.771202    0.767511    0.021356   -0.896168    0.789400
Cl   -0.043021    1.113890    2.660698   -0.001636    0.073018    0.267176
13
* Frequency(12)  484.3676
C     0.023297   -1.873250   -0.001804   -0.000941    0.042944    0.015657
C     0.009526   -1.254424    1.247571   -0.007342    0.328387   -0.130967
C    -0.021930    0.160808    1.267726   -0.005225    0.238856   -0.238542
C    -0.039650    0.959902    0.112780    0.000966   -0.037236   -0.425452
C    -0.025091    0.308281   -1.080383    0.005719   -0.259561   -0.481679
C     0.005364   -1.063229   -1.148310    0.007663   -0.342394   -0.206890
H     0.047608   -2.963234   -0.100713   -0.000999    0.043165    0.404577
H     0.021981   -1.812659    2.185322   -0.010014    0.437785   -0.073445
H    -0.038852    0.933905   -1.974976    0.010387   -0.484012   -0.623947
H     0.015790   -1.526304   -2.138525    0.013883   -0.624561   -0.051903
O    -0.069738    2.319203   -0.153516    0.000815   -0.044025    0.481917
H    -0.081670    2.852683    0.695738    0.021356   -0.896168    0.789400
Cl   -0.042872    1.107251    2.636406   -0.001636    0.073018    0.267176
13
* Frequency(12)  484.3676
C     0.023356   -1.875957   -0.002791   -0.000941    0.042944    0.015657
C     0.009988   -1.275118    1.255824   -0.007342    0.328387   -0.130967
C    -0.021601    0.145756    1.282758   -0.005225    0.238856   -0.238542
C    -0.039711    0.962248    0.139591    0.000966   -0.037236   -0.425452
C    -0.025452    0.324638   -1.050029    0.005719   -0.259561   -0.481679
C     0.004881   -1.041652   -1.135272    0.007663   -0.342394   -0.206890
H     0.047671   -2.965954   -0.126209   -0.000999    0.043165    0.404577
H     0.022612   -1.840247    2.189950   -0.010014    0.437785   -0.073445
H    -0.039506    0.964406   -1.935656    0.010387   -0.484012   -0.623947
H     0.014915   -1.486946   -2.135254    0.013883   -0.624561   -0.051903
O    -0.069789    2.321978   -0.183885    0.000815   -0.044025    0.481917
H    -0.083016    2.909157    0.645992    0.021356   -0.896168    0.789400
Cl   -0.042769    1.102650    2.619569   -0.001636    0.073018    0.267176
13
* Frequency(12)  484.3676
C     0.023383   -1.877171   -0.003234   -0.000941    0.042944    0.015657
C     0.010196   -1.284406    1.259528   -0.007342    0.328387   -0.130967
C    -0.021453    0.139000    1.289505   -0.005225    0.238856   -0.238542
C    -0.039738    0.963301    0.151624    0.000966   -0.037236   -0.425452
C    -0.025613    0.331979   -1.036405    0.005719   -0.259561   -0.481679
C     0.004664   -1.031968   -1.129420    0.007663   -0.342394   -0.206890
H     0.047699   -2.967175   -0.137652   -0.000999    0.043165    0.404577
H     0.022895   -1.852629    2.192028   -0.010014    0.437785   -0.073445
H    -0.039800    0.978096   -1.918009    0.010387   -0.484012   -0.623947
H     0.014523   -1.469281   -2.133786    0.013883   -0.624561   -0.051903
O    -0.069812    2.323223   -0.197515    0.000815   -0.044025    0.481917
H    -0.083620    2.934504    0.623664    0.021356   -0.896168    0.789400
Cl   -0.042723    1.100585    2.612013   -0.001636    0.073018    0.267176
13
* Frequency(12)  484.3676
C     0.023374   -1.876763   -0.003085   -0.000941    0.042944    0.015657
C     0.010126   -1.281282    1.258282   -0.007342    0.328387   -0.130967
C    -0.021503    0.141273    1.287235   -0.005225    0.238856   -0.238542
C    -0.039729    0.962947    0.147576    0.000966   -0.037236   -0.425452
C    -0.025559    0.329510   -1.040988    0.005719   -0.259561   -0.481679
C     0.004737   -1.035225   -1.131389    0.007663   -0.342394   -0.206890
H     0.047690   -2.966764   -0.133803   -0.000999    0.043165    0.404577
H     0.022800   -1.848464    2.191329   -0.010014    0.437785   -0.073445
H    -0.039701    0.973491   -1.923945    0.010387   -0.484012   -0.623947
H     0.014655   -1.475223   -2.134280    0.013883   -0.624561   -0.051903
O    -0.069805    2.322804   -0.192930    0.000815   -0.044025    0.481917
H    -0.083417    2.925978    0.631175    0.021356   -0.896168    0.789400
Cl   -0.042739    1.101279    2.614555   -0.001636    0.073018    0.267176
13
* Frequency(12)  484.3676
C     0.023330   -1.874775   -0.002360   -0.000941    0.042944    0.015657
C     0.009786   -1.266084    1.252221   -0.007342    0.328387   -0.130967
C    -0.021745    0.152328    1.276195   -0.005225    0.238856   -0.238542
C    -0.039684    0.961224    0.127886    0.000966   -0.037236   -0.425452
C    -0.025294    0.317497   -1.063281    0.005719   -0.259561   -0.481679
C     0.005091   -1.051072   -1.140964    0.007663   -0.342394   -0.206890
H     0.047644   -2.964766   -0.115078   -0.000999    0.043165    0.404577
H     0.022336   -1.828202    2.187930   -0.010014    0.437785   -0.073445
H    -0.039220    0.951090   -1.952823    0.010387   -0.484012   -0.623947
H     0.015297   -1.504129   -2.136682    0.013883   -0.624561   -0.051903
O    -0.069767    2.320766   -0.170626    0.000815   -0.044025    0.481917
H    -0.082429    2.884501    0.667710    0.021356   -0.896168    0.789400
Cl   -0.042814    1.104659    2.626920   -0.001636    0.073018    0.267176
13
* Frequency(12)  484.3676
C     0.023257   -1.871424   -0.001138   -0.000941    0.042944    0.015657
C     0.009214   -1.240458    1.242001   -0.007342    0.328387   -0.130967
C    -0.022153    0.170966    1.257581   -0.005225    0.238856   -0.238542
C    -0.039609    0.958318    0.094686    0.000966   -0.037236   -0.425452
C    -0.024848    0.297242   -1.100869    0.005719   -0.259561   -0.481679
C     0.005689   -1.077790   -1.157108    0.007663   -0.342394   -0.206890
H     0.047566   -2.961398   -0.083507   -0.000999    0.043165    0.404577
H     0.021555   -1.794040    2.182199   -0.010014    0.437785   -0.073445
H    -0.038410    0.913321   -2.001512    0.010387   -0.484012   -0.623947
H     0.016381   -1.552866   -2.140732    0.013883   -0.624561   -0.051903
O    -0.069703    2.317331   -0.133020    0.000815   -0.044025    0.481917
H    -0.080762    2.814570    0.729310    0.021356   -0.896168    0.789400
Cl   -0.042942    1.110357    2.647769   -0.001636    0.073018    0.267176
13
* Frequency(12)  484.3676
C     0.023161   -1.867073    0.000448   -0.000941    0.042944    0.015657
C     0.008470   -1.207183    1.228730   -0.007342    0.328387   -0.130967
C    -0.022682    0.195170    1.233409   -0.005225    0.238856   -0.238542
C    -0.039511    0.954545    0.051575    0.000966   -0.037236   -0.425452
C    -0.024269    0.270941   -1.149677    0.005719   -0.259561   -0.481679
C     0.006466   -1.112485   -1.178073    0.007663   -0.342394   -0.206890
H     0.047464   -2.957024   -0.042512   -0.000999    0.043165    0.404577
H     0.020540   -1.749679    2.174756   -0.010014    0.437785   -0.073445
H    -0.037357    0.864276   -2.064736    0.010387   -0.484012   -0.623947
H     0.017787   -1.616152   -2.145992    0.013883   -0.624561   -0.051903
O    -0.069621    2.312870   -0.084188    0.000815   -0.044025    0.481917
H    -0.078598    2.723761    0.809300    0.021356   -0.896168    0.789400
Cl   -0.043108    1.117756    2.674842   -0.001636    0.073018    0.267176
13
* Frequency(12)  484.3676
C     0.023054   -1.862192    0.002228   -0.000941    0.042944    0.015657
C     0.007635   -1.169864    1.213846   -0.007342    0.328387   -0.130967
C    -0.023276    0.222314    1.206300   -0.005225    0.238856   -0.238542
C    -0.039401    0.950313    0.003225    0.000966   -0.037236   -0.425452
C    -0.023619    0.241443   -1.204417    0.005719   -0.259561   -0.481679
C     0.007337   -1.151396   -1.201584    0.007663   -0.342394   -0.206890
H     0.047351   -2.952119    0.003466   -0.000999    0.043165    0.404577
H     0.019402   -1.699927    2.166410   -0.010014    0.437785   -0.073445
H    -0.036177    0.809270   -2.135644    0.010387   -0.484012   -0.623947
H     0.019365   -1.687130   -2.151890    0.013883   -0.624561   -0.051903
O    -0.069528    2.307867   -0.029420    0.000815   -0.044025    0.481917
H    -0.076171    2.621917    0.899011    0.021356   -0.896168    0.789400
Cl   -0.043294    1.126054    2.705205   -0.001636    0.073018    0.267176
