13
* (null), Energy   -1000.0000000
C     0.023054   -1.862192    0.002228   -0.145206   -0.003249   -0.000007
C     0.007635   -1.169864    1.213846   -0.121152   -0.002645   -0.000030
C    -0.023276    0.222314    1.206300    0.076002    0.001717    0.000007
C    -0.039401    0.950313    0.003225    0.138330    0.003055    0.000003
C    -0.023619    0.241443   -1.204417   -0.077424   -0.001709    0.000004
C     0.007337   -1.151396   -1.201584   -0.124268   -0.002760    0.000004
H     0.047351   -2.952119    0.003466    1.423946    0.031716    0.000109
H     0.019402   -1.699927    2.166410    0.775740    0.017316   -0.000004
H    -0.036177    0.809270   -2.135644    0.575421    0.012810    0.000052
H     0.019365   -1.687130   -2.151890    0.974792    0.021718    0.000115
O    -0.069528    2.307867   -0.029420   -0.028944   -0.000679    0.000009
H    -0.076171    2.621917    0.899011   -0.065652   -0.001434    0.000003
Cl   -0.043294    1.126054    2.705205   -0.005733   -0.000135   -0.000006
13
* Frequency(17)  727.1161
C     0.006552   -1.862561    0.002227   -0.145206   -0.003249   -0.000007
C    -0.006133   -1.170164    1.213843   -0.121152   -0.002645   -0.000030
C    -0.014639    0.222510    1.206301    0.076002    0.001717    0.000007
C    -0.023681    0.950660    0.003225    0.138330    0.003055    0.000003
C    -0.032417    0.241249   -1.204417   -0.077424   -0.001709    0.000004
C    -0.006786   -1.151710   -1.201584   -0.124268   -0.002760    0.000004
H     0.209175   -2.948515    0.003479    1.423946    0.031716    0.000109
H     0.107561   -1.697960    2.166409    0.775740    0.017316   -0.000004
H     0.029217    0.810726   -2.135638    0.575421    0.012810    0.000052
H     0.130145   -1.684662   -2.151877    0.974792    0.021718    0.000115
O    -0.072817    2.307789   -0.029419   -0.028944   -0.000679    0.000009
H    -0.083632    2.621754    0.899011   -0.065652   -0.001434    0.000003
Cl   -0.043945    1.126038    2.705204   -0.005733   -0.000135   -0.000006
13
* Frequency(17)  727.1161
C    -0.008161   -1.862891    0.002226   -0.145206   -0.003249   -0.000007
C    -0.018409   -1.170432    1.213840   -0.121152   -0.002645   -0.000030
C    -0.006937    0.222684    1.206302    0.076002    0.001717    0.000007
C    -0.009664    0.950970    0.003225    0.138330    0.003055    0.000003
C    -0.040263    0.241076   -1.204417   -0.077424   -0.001709    0.000004
C    -0.019378   -1.151990   -1.201584   -0.124268   -0.002760    0.000004
H     0.353463   -2.945301    0.003490    1.423946    0.031716    0.000109
H     0.186167   -1.696205    2.166409    0.775740    0.017316   -0.000004
H     0.087524    0.812024   -2.135633    0.575421    0.012810    0.000052
H     0.228921   -1.682461   -2.151866    0.974792    0.021718    0.000115
O    -0.075750    2.307721   -0.029418   -0.028944   -0.000679    0.000009
H    -0.090285    2.621608    0.899011   -0.065652   -0.001434    0.000003
Cl   -0.044526    1.126025    2.705203   -0.005733   -0.000135   -0.000006
13
* Frequency(17)  727.1161
C    -0.019492   -1.863144    0.002226   -0.145206   -0.003249   -0.000007
C    -0.027863   -1.170639    1.213838   -0.121152   -0.002645   -0.000030
C    -0.001007    0.222818    1.206302    0.076002    0.001717    0.000007
C     0.001131    0.951208    0.003226    0.138330    0.003055    0.000003
C    -0.046304    0.240943   -1.204416   -0.077424   -0.001709    0.000004
C    -0.029075   -1.152205   -1.201583   -0.124268   -0.002760    0.000004
H     0.464579   -2.942826    0.003499    1.423946    0.031716    0.000109
H     0.246701   -1.694854    2.166409    0.775740    0.017316   -0.000004
H     0.132426    0.813024   -2.135629    0.575421    0.012810    0.000052
H     0.304987   -1.680767   -2.151857    0.974792    0.021718    0.000115
O    -0.078009    2.307668   -0.029417   -0.028944   -0.000679    0.000009
H    -0.095408    2.621497    0.899012   -0.065652   -0.001434    0.000003
Cl   -0.044973    1.126014    2.705203   -0.005733   -0.000135   -0.000006
13
* Frequency(17)  727.1161
C    -0.026213   -1.863295    0.002225   -0.145206   -0.003249   -0.000007
C    -0.033470   -1.170761    1.213836   -0.121152   -0.002645   -0.000030
C     0.002511    0.222897    1.206303    0.076002    0.001717    0.000007
C     0.007533    0.951350    0.003226    0.138330    0.003055    0.000003
C    -0.049888    0.240864   -1.204416   -0.077424   -0.001709    0.000004
C    -0.034826   -1.152333   -1.201583   -0.124268   -0.002760    0.000004
H     0.530481   -2.941358    0.003504    1.423946    0.031716    0.000109
H     0.282603   -1.694052    2.166408    0.775740    0.017316   -0.000004
H     0.159058    0.813617   -2.135626    0.575421    0.012810    0.000052
H     0.350103   -1.679762   -2.151851    0.974792    0.021718    0.000115
O    -0.079348    2.307636   -0.029417   -0.028944   -0.000679    0.000009
H    -0.098446    2.621430    0.899012   -0.065652   -0.001434    0.000003
Cl   -0.045239    1.126008    2.705203   -0.005733   -0.000135   -0.000006
13
* Frequency(17)  727.1161
C    -0.027594   -1.863325    0.002225   -0.145206   -0.003249   -0.000007
C    -0.034623   -1.170786    1.213836   -0.121152   -0.002645   -0.000030
C     0.003234    0.222913    1.206303    0.076002    0.001717    0.000007
C     0.008849    0.951379    0.003226    0.138330    0.003055    0.000003
C    -0.050624    0.240847   -1.204416   -0.077424   -0.001709    0.000004
C    -0.036009   -1.152359   -1.201583   -0.124268   -0.002760    0.000004
H     0.544030   -2.941056    0.003505    1.423946    0.031716    0.000109
H     0.289984   -1.693888    2.166408    0.775740    0.017316   -0.000004
H     0.164533    0.813738   -2.135626    0.575421    0.012810    0.000052
H     0.359377   -1.679555   -2.151850    0.974792    0.021718    0.000115
O    -0.079624    2.307630   -0.029417   -0.028944   -0.000679    0.000009
H    -0.099071    2.621417    0.899012   -0.065652   -0.001434    0.000003
Cl   -0.045293    1.126007    2.705203   -0.005733   -0.000135   -0.000006
13
* Frequency(17)  727.1161
C    -0.023487   -1.863234    0.002225   -0.145206   -0.003249   -0.000007
C    -0.031196   -1.170711    1.213837   -0.121152   -0.002645   -0.000030
C     0.001084    0.222865    1.206303    0.076002    0.001717    0.000007
C     0.004936    0.951292    0.003226    0.138330    0.003055    0.000003
C    -0.048435    0.240896   -1.204416   -0.077424   -0.001709    0.000004
C    -0.032494   -1.152281   -1.201583   -0.124268   -0.002760    0.000004
H     0.503755   -2.941953    0.003502    1.423946    0.031716    0.000109
H     0.268043   -1.694377    2.166409    0.775740    0.017316   -0.000004
H     0.148258    0.813376   -2.135627    0.575421    0.012810    0.000052
H     0.331806   -1.680169   -2.151853    0.974792    0.021718    0.000115
O    -0.078805    2.307649   -0.029417   -0.028944   -0.000679    0.000009
H    -0.097214    2.621457    0.899012   -0.065652   -0.001434    0.000003
Cl   -0.045131    1.126010    2.705203   -0.005733   -0.000135   -0.000006
13
* Frequency(17)  727.1161
C    -0.014337   -1.863029    0.002226   -0.145206   -0.003249   -0.000007
C    -0.023562   -1.170545    1.213839   -0.121152   -0.002645   -0.000030
C    -0.003705    0.222757    1.206302    0.076002    0.001717    0.000007
C    -0.003781    0.951100    0.003226    0.138330    0.003055    0.000003
C    -0.043556    0.241003   -1.204416   -0.077424   -0.001709    0.000004
C    -0.024663   -1.152107   -1.201583   -0.124268   -0.002760    0.000004
H     0.414022   -2.943952    0.003495    1.423946    0.031716    0.000109
H     0.219158   -1.695469    2.166409    0.775740    0.017316   -0.000004
H     0.111996    0.812569   -2.135631    0.575421    0.012810    0.000052
H     0.270377   -1.681538   -2.151861    0.974792    0.021718    0.000115
O    -0.076981    2.307692   -0.029418   -0.028944   -0.000679    0.000009
H    -0.093077    2.621547    0.899012   -0.065652   -0.001434    0.000003
Cl   -0.044770    1.126019    2.705203   -0.005733   -0.000135   -0.000006
13
* Frequency(17)  727.1161
C    -0.001134   -1.862733    0.002226   -0.145206   -0.003249   -0.000007
C    -0.012546   -1.170304    1.213841   -0.121152   -0.002645   -0.000030
C    -0.010615    0.222601    1.206302    0.076002    0.001717    0.000007
C    -0.016358    0.950822    0.003225    0.138330    0.003055    0.000003
C    -0.036516    0.241159   -1.204417   -0.077424   -0.001709    0.000004
C    -0.013364   -1.151856   -1.201584   -0.124268   -0.002760    0.000004
H     0.284554   -2.946836    0.003485    1.423946    0.031716    0.000109
H     0.148626   -1.697043    2.166409    0.775740    0.017316   -0.000004
H     0.059678    0.811404   -2.135636    0.575421    0.012810    0.000052
H     0.181748   -1.683512   -2.151871    0.974792    0.021718    0.000115
O    -0.074350    2.307754   -0.029419   -0.028944   -0.000679    0.000009
H    -0.087108    2.621678    0.899011   -0.065652   -0.001434    0.000003
Cl   -0.044249    1.126031    2.705204   -0.005733   -0.000135   -0.000006
13
* Frequency(17)  727.1161
C     0.014689   -1.862379    0.002227   -0.145206   -0.003249   -0.000007
C     0.000656   -1.170016    1.213845   -0.121152   -0.002645   -0.000030
C    -0.018898    0.222413    1.206301    0.076002    0.001717    0.000007
C    -0.031432    0.950489    0.003225    0.138330    0.003055    0.000003
C    -0.028079    0.241345   -1.204417   -0.077424   -0.001709    0.000004
C     0.000178   -1.151555   -1.201584   -0.124268   -0.002760    0.000004
H     0.129382   -2.950292    0.003473    1.423946    0.031716    0.000109
H     0.064091   -1.698930    2.166410    0.775740    0.017316   -0.000004
H    -0.003028    0.810008   -2.135641    0.575421    0.012810    0.000052
H     0.075521   -1.685879   -2.151884    0.974792    0.021718    0.000115
O    -0.071195    2.307827   -0.029420   -0.028944   -0.000679    0.000009
H    -0.079953    2.621834    0.899011   -0.065652   -0.001434    0.000003
Cl   -0.043624    1.126046    2.705204   -0.005733   -0.000135   -0.000006
13
* Frequency(17)  727.1161
C     0.031419   -1.862005    0.002228   -0.145206   -0.003249   -0.000007
C     0.014615   -1.169711    1.213848   -0.121152   -0.002645   -0.000030
C    -0.027654    0.222216    1.206300    0.076002    0.001717    0.000007
C    -0.047370    0.950137    0.003225    0.138330    0.003055    0.000003
C    -0.019158    0.241542   -1.204418   -0.077424   -0.001709    0.000004
C     0.014496   -1.151237   -1.201585   -0.124268   -0.002760    0.000004
H    -0.034680   -2.953946    0.003460    1.423946    0.031716    0.000109
H    -0.025287   -1.700925    2.166410    0.775740    0.017316   -0.000004
H    -0.069326    0.808532   -2.135647    0.575421    0.012810    0.000052
H    -0.036791   -1.688381   -2.151897    0.974792    0.021718    0.000115
O    -0.067861    2.307906   -0.029421   -0.028944   -0.000679    0.000009
H    -0.072389    2.621999    0.899011   -0.065652   -0.001434    0.000003
Cl   -0.042964    1.126061    2.705205   -0.005733   -0.000135   -0.000006
13
* Frequency(17)  727.1161
C     0.047243   -1.861651    0.002229   -0.145206   -0.003249   -0.000007
C     0.027817   -1.169423    1.213851   -0.121152   -0.002645   -0.000030
C    -0.035936    0.222028    1.206299    0.076002    0.001717    0.000007
C    -0.062444    0.949804    0.003224    0.138330    0.003055    0.000003
C    -0.010721    0.241728   -1.204418   -0.077424   -0.001709    0.000004
C     0.028038   -1.150937   -1.201585   -0.124268   -0.002760    0.000004
H    -0.189852   -2.957402    0.003448    1.423946    0.031716    0.000109
H    -0.109822   -1.702812    2.166410    0.775740    0.017316   -0.000004
H    -0.132031    0.807137   -2.135653    0.575421    0.012810    0.000052
H    -0.143017   -1.690748   -2.151909    0.974792    0.021718    0.000115
O    -0.064707    2.307980   -0.029422   -0.028944   -0.000679    0.000009
H    -0.065235    2.622155    0.899010   -0.065652   -0.001434    0.000003
Cl   -0.042339    1.126076    2.705206   -0.005733   -0.000135   -0.000006
13
* Frequency(17)  727.1161
C     0.060445   -1.861355    0.002229   -0.145206   -0.003249   -0.000007
C     0.038832   -1.169183    1.213854   -0.121152   -0.002645   -0.000030
C    -0.042847    0.221872    1.206298    0.076002    0.001717    0.000007
C    -0.075022    0.949527    0.003224    0.138330    0.003055    0.000003
C    -0.003682    0.241883   -1.204418   -0.077424   -0.001709    0.000004
C     0.039336   -1.150686   -1.201586   -0.124268   -0.002760    0.000004
H    -0.319320   -2.960286    0.003438    1.423946    0.031716    0.000109
H    -0.180353   -1.704386    2.166411    0.775740    0.017316   -0.000004
H    -0.184350    0.805972   -2.135658    0.575421    0.012810    0.000052
H    -0.231647   -1.692723   -2.151920    0.974792    0.021718    0.000115
O    -0.062075    2.308041   -0.029423   -0.028944   -0.000679    0.000009
H    -0.059265    2.622286    0.899010   -0.065652   -0.001434    0.000003
Cl   -0.041818    1.126088    2.705206   -0.005733   -0.000135   -0.000006
13
* Frequency(17)  727.1161
C     0.069596   -1.861151    0.002230   -0.145206   -0.003249   -0.000007
C     0.046467   -1.169016    1.213856   -0.121152   -0.002645   -0.000030
C    -0.047636    0.221764    1.206298    0.076002    0.001717    0.000007
C    -0.083739    0.949334    0.003224    0.138330    0.003055    0.000003
C     0.001197    0.241991   -1.204419   -0.077424   -0.001709    0.000004
C     0.047167   -1.150512   -1.201586   -0.124268   -0.002760    0.000004
H    -0.409053   -2.962284    0.003431    1.423946    0.031716    0.000109
H    -0.229239   -1.705477    2.166411    0.775740    0.017316   -0.000004
H    -0.220611    0.805165   -2.135661    0.575421    0.012810    0.000052
H    -0.293076   -1.694091   -2.151927    0.974792    0.021718    0.000115
O    -0.060251    2.308084   -0.029423   -0.028944   -0.000679    0.000009
H    -0.055128    2.622376    0.899010   -0.065652   -0.001434    0.000003
Cl   -0.041456    1.126097    2.705207   -0.005733   -0.000135   -0.000006
13
* Frequency(17)  727.1161
C     0.073703   -1.861059    0.002230   -0.145206   -0.003249   -0.000007
C     0.049894   -1.168941    1.213857   -0.121152   -0.002645   -0.000030
C    -0.049786    0.221716    1.206298    0.076002    0.001717    0.000007
C    -0.087651    0.949248    0.003224    0.138330    0.003055    0.000003
C     0.003387    0.242039   -1.204419   -0.077424   -0.001709    0.000004
C     0.050682   -1.150434   -1.201586   -0.124268   -0.002760    0.000004
H    -0.449328   -2.963181    0.003428    1.423946    0.031716    0.000109
H    -0.251179   -1.705967    2.166411    0.775740    0.017316   -0.000004
H    -0.236886    0.804802   -2.135663    0.575421    0.012810    0.000052
H    -0.320647   -1.694706   -2.151930    0.974792    0.021718    0.000115
O    -0.059432    2.308103   -0.029423   -0.028944   -0.000679    0.000009
H    -0.053271    2.622417    0.899010   -0.065652   -0.001434    0.000003
Cl   -0.041294    1.126101    2.705207   -0.005733   -0.000135   -0.000006
13
* Frequency(17)  727.1161
C     0.072321   -1.861090    0.002230   -0.145206   -0.003249   -0.000007
C     0.048741   -1.168966    1.213857   -0.121152   -0.002645   -0.000030
C    -0.049063    0.221732    1.206298    0.076002    0.001717    0.000007
C    -0.086335    0.949277    0.003224    0.138330    0.003055    0.000003
C     0.002651    0.242023   -1.204419   -0.077424   -0.001709    0.000004
C     0.049500   -1.150460   -1.201586   -0.124268   -0.002760    0.000004
H    -0.435780   -2.962880    0.003429    1.423946    0.031716    0.000109
H    -0.243799   -1.705802    2.166411    0.775740    0.017316   -0.000004
H    -0.231411    0.804924   -2.135662    0.575421    0.012810    0.000052
H    -0.311372   -1.694499   -2.151929    0.974792    0.021718    0.000115
O    -0.059708    2.308097   -0.029423   -0.028944   -0.000679    0.000009
H    -0.053896    2.622403    0.899010   -0.065652   -0.001434    0.000003
Cl   -0.041349    1.126099    2.705207   -0.005733   -0.000135   -0.000006
13
* Frequency(17)  727.1161
C     0.065601   -1.861240    0.002230   -0.145206   -0.003249   -0.000007
C     0.043134   -1.169089    1.213855   -0.121152   -0.002645   -0.000030
C    -0.045545    0.221811    1.206298    0.076002    0.001717    0.000007
C    -0.079933    0.949418    0.003224    0.138330    0.003055    0.000003
C    -0.000933    0.241944   -1.204418   -0.077424   -0.001709    0.000004
C     0.043749   -1.150588   -1.201586   -0.124268   -0.002760    0.000004
H    -0.369877   -2.961412    0.003434    1.423946    0.031716    0.000109
H    -0.207896   -1.705001    2.166411    0.775740    0.017316   -0.000004
H    -0.204780    0.805517   -2.135660    0.575421    0.012810    0.000052
H    -0.266257   -1.693494   -2.151924    0.974792    0.021718    0.000115
O    -0.061047    2.308065   -0.029423   -0.028944   -0.000679    0.000009
H    -0.056934    2.622337    0.899010   -0.065652   -0.001434    0.000003
Cl   -0.041614    1.126093    2.705206   -0.005733   -0.000135   -0.000006
13
* Frequency(17)  727.1161
C     0.054270   -1.861494    0.002229   -0.145206   -0.003249   -0.000007
C     0.033680   -1.169295    1.213853   -0.121152   -0.002645   -0.000030
C    -0.039614    0.221945    1.206299    0.076002    0.001717    0.000007
C    -0.069139    0.949656    0.003224    0.138330    0.003055    0.000003
C    -0.006974    0.241811   -1.204418   -0.077424   -0.001709    0.000004
C     0.034051   -1.150803   -1.201585   -0.124268   -0.002760    0.000004
H    -0.258761   -2.958937    0.003443    1.423946    0.031716    0.000109
H    -0.147362   -1.703650    2.166411    0.775740    0.017316   -0.000004
H    -0.159878    0.806517   -2.135656    0.575421    0.012810    0.000052
H    -0.190190   -1.691799   -2.151915    0.974792    0.021718    0.000115
O    -0.063306    2.308012   -0.029422   -0.028944   -0.000679    0.000009
H    -0.062057    2.622225    0.899010   -0.065652   -0.001434    0.000003
Cl   -0.042061    1.126083    2.705206   -0.005733   -0.000135   -0.000006
13
* Frequency(17)  727.1161
C     0.039556   -1.861823    0.002228   -0.145206   -0.003249   -0.000007
C     0.021403   -1.169563    1.213850   -0.121152   -0.002645   -0.000030
C    -0.031913    0.222119    1.206299    0.076002    0.001717    0.000007
C    -0.055122    0.949966    0.003224    0.138330    0.003055    0.000003
C    -0.014820    0.241638   -1.204418   -0.077424   -0.001709    0.000004
C     0.021459   -1.151083   -1.201585   -0.124268   -0.002760    0.000004
H    -0.114473   -2.955723    0.003454    1.423946    0.031716    0.000109
H    -0.068757   -1.701895    2.166410    0.775740    0.017316   -0.000004
H    -0.101570    0.807815   -2.135650    0.575421    0.012810    0.000052
H    -0.091415   -1.689598   -2.151903    0.974792    0.021718    0.000115
O    -0.066239    2.307944   -0.029421   -0.028944   -0.000679    0.000009
H    -0.068710    2.622080    0.899010   -0.065652   -0.001434    0.000003
Cl   -0.042642    1.126069    2.705205   -0.005733   -0.000135   -0.000006
13
* Frequency(17)  727.1161
C     0.023054   -1.862192    0.002228   -0.145206   -0.003249   -0.000007
C     0.007635   -1.169864    1.213846   -0.121152   -0.002645   -0.000030
C    -0.023276    0.222314    1.206300    0.076002    0.001717    0.000007
C    -0.039401    0.950313    0.003225    0.138330    0.003055    0.000003
C    -0.023619    0.241443   -1.204417   -0.077424   -0.001709    0.000004
C     0.007337   -1.151396   -1.201584   -0.124268   -0.002760    0.000004
H     0.047351   -2.952119    0.003466    1.423946    0.031716    0.000109
H     0.019402   -1.699927    2.166410    0.775740    0.017316   -0.000004
H    -0.036177    0.809270   -2.135644    0.575421    0.012810    0.000052
H     0.019365   -1.687130   -2.151890    0.974792    0.021718    0.000115
O    -0.069528    2.307867   -0.029420   -0.028944   -0.000679    0.000009
H    -0.076171    2.621917    0.899011   -0.065652   -0.001434    0.000003
Cl   -0.043294    1.126054    2.705205   -0.005733   -0.000135   -0.000006
