13
Coordinates from ORCA-job ex1_optfreq_PBE_gas
  C   0.02305433038491     -1.86219213080938      0.00222756119608
  C   0.00763522689329     -1.16986375643645      1.21384640945225
  C   -0.02327591822523      0.22231448017361      1.20630030856690
  C   -0.03940112159195      0.95031316873404      0.00322472899601
  C   -0.02361858265288      0.24144338782279     -1.20441733871670
  C   0.00733687865964     -1.15139635287087     -1.20158449608896
  H   0.04735084812175     -2.95211883248986      0.00346646380515
  H   0.01940233601398     -1.69992741660930      2.16640983153886
  H   -0.03617676190295      0.80927037138203     -2.13564427939832
  H   0.01936517698828     -1.68713028512921     -2.15189020563987
  O   -0.06952802881014      2.30786658969842     -0.02942013716764
  H   -0.07617107438550      2.62191661248132      0.89901072441880
  Cl  -0.04329378949320      1.12605366405285      2.70520467903744
