%chk=ch2foh.chk
%mem=6GB
%nprocshared=1
#p b3lyp/cc-pVTZ opt=tight freq int=ultrafine

CFH2-OH (fluoromethanol) ground-state opt+freq  /  B3LYP/cc-pVTZ

0 1
C
F   1  1.38
O   1  1.40   2  108.0
H   1  1.09   2  110.0   3   120.0
H   1  1.09   2  110.0   3  -120.0
H   3  0.96   1  108.0   2    60.0

--Link1--
%oldchk=ch2foh.chk
%chk=ch2foh_tda.chk
%mem=6GB
%nprocshared=1
#p tda(nstates=5) b3lyp/cc-pVTZ geom=check guess=read int=ultrafine

CFH2-OH  first 5 excited states  /  TD-DFT + Tamm-Dancoff (TDA)  B3LYP/cc-pVTZ

0 1

--Link1--
%oldchk=ch2foh.chk
%chk=ch2foh_cis.chk
%mem=6GB
%nprocshared=1
#p cis(nstates=5)/cc-pVTZ geom=check guess=read

CFH2-OH  first 5 excited states  /  CIS/cc-pVTZ

0 1

