13
Coordinates from ORCA-job ex1_optfreq_B3LYP_water
  C   0.02317409494017     -1.85909633171409      0.00141752962470
  C   0.00786212627604     -1.17047512748452      1.20854120149074
  C   -0.02332164056716      0.21745492632208      1.20599912356048
  C   -0.03898156223582      0.94193705541211      0.01033387120118
  C   -0.02368145684559      0.23867766114314     -1.19449290268213
  C   0.00714676551533     -1.14902963498651     -1.19714504018082
  H   0.04754813816823     -2.94094625602150      0.00123127343812
  H   0.01983298204870     -1.70138815771510      2.15126436534639
  H   -0.03648609772906      0.80063743962000     -2.12004150171863
  H   0.01870605855692     -1.67801330623973     -2.14180221395472
  O   -0.06875475205254      2.29754668355775     -0.03485307584825
  H   -0.07611987192377      2.65820972443616      0.86539417700521
  Cl  -0.04424526415145      1.10103482367022      2.72088744271773
