13
* (null), Energy   -1000.0000000
C     0.022935   -1.857170    0.001689   -0.146336   -0.003272   -0.000003
C     0.007588   -1.168472    1.207598   -0.116201   -0.002560   -0.000023
C    -0.023316    0.218339    1.203609    0.071612    0.001613    0.000009
C    -0.039104    0.941796    0.007854    0.141771    0.003103   -0.000002
C    -0.023611    0.238450   -1.195761   -0.082763   -0.001830    0.000016
C     0.007183   -1.148038   -1.196318   -0.123207   -0.002738    0.000009
H     0.047216   -2.938729    0.001283    1.406088    0.031549    0.000039
H     0.019494   -1.696780    2.151359    0.768531    0.017227   -0.000095
H    -0.036200    0.803274   -2.118796    0.589359    0.013089   -0.000011
H     0.019068   -1.678447   -2.139962    0.997995    0.022247    0.000079
O    -0.068652    2.295518   -0.032669   -0.029204   -0.000653   -0.000001
H    -0.076747    2.637517    0.873152   -0.062265   -0.001496    0.000025
Cl   -0.043174    1.109292    2.713696   -0.005578   -0.000129   -0.000003
13
* Frequency(17)  760.8913
C     0.006305   -1.857542    0.001689   -0.146336   -0.003272   -0.000003
C    -0.005618   -1.168763    1.207595   -0.116201   -0.002560   -0.000023
C    -0.015178    0.218522    1.203610    0.071612    0.001613    0.000009
C    -0.022992    0.942149    0.007853    0.141771    0.003103   -0.000002
C    -0.033017    0.238242   -1.195759   -0.082763   -0.001830    0.000016
C    -0.006819   -1.148349   -1.196317   -0.123207   -0.002738    0.000009
H     0.207011   -2.935143    0.001288    1.406088    0.031549    0.000039
H     0.106834   -1.694823    2.151349    0.768531    0.017227   -0.000095
H     0.030778    0.804761   -2.118798    0.589359    0.013089   -0.000011
H     0.132485   -1.675919   -2.139953    0.997995    0.022247    0.000079
O    -0.071971    2.295444   -0.032669   -0.029204   -0.000653   -0.000001
H    -0.083824    2.637347    0.873155   -0.062265   -0.001496    0.000025
Cl   -0.043808    1.109277    2.713696   -0.005578   -0.000129   -0.000003
13
* Frequency(17)  760.8913
C    -0.008523   -1.857874    0.001688   -0.146336   -0.003272   -0.000003
C    -0.017393   -1.169023    1.207593   -0.116201   -0.002560   -0.000023
C    -0.007922    0.218686    1.203611    0.071612    0.001613    0.000009
C    -0.008626    0.942463    0.007853    0.141771    0.003103   -0.000002
C    -0.041403    0.238057   -1.195758   -0.082763   -0.001830    0.000016
C    -0.019303   -1.148626   -1.196316   -0.123207   -0.002738    0.000009
H     0.349489   -2.931947    0.001292    1.406088    0.031549    0.000039
H     0.184709   -1.693077    2.151339    0.768531    0.017227   -0.000095
H     0.090497    0.806088   -2.118799    0.589359    0.013089   -0.000011
H     0.233612   -1.673665   -2.139945    0.997995    0.022247    0.000079
O    -0.074930    2.295378   -0.032669   -0.029204   -0.000653   -0.000001
H    -0.090133    2.637196    0.873157   -0.062265   -0.001496    0.000025
Cl   -0.044373    1.109264    2.713696   -0.005578   -0.000129   -0.000003
13
* Frequency(17)  760.8913
C    -0.019942   -1.858129    0.001688   -0.146336   -0.003272   -0.000003
C    -0.026460   -1.169222    1.207591   -0.116201   -0.002560   -0.000023
C    -0.002333    0.218812    1.203612    0.071612    0.001613    0.000009
C     0.002437    0.942705    0.007853    0.141771    0.003103   -0.000002
C    -0.047862    0.237914   -1.195757   -0.082763   -0.001830    0.000016
C    -0.028918   -1.148840   -1.196315   -0.123207   -0.002738    0.000009
H     0.459211   -2.929485    0.001295    1.406088    0.031549    0.000039
H     0.244680   -1.691733    2.151331    0.768531    0.017227   -0.000095
H     0.136487    0.807109   -2.118800    0.589359    0.013089   -0.000011
H     0.311489   -1.671929   -2.139939    0.997995    0.022247    0.000079
O    -0.077209    2.295327   -0.032669   -0.029204   -0.000653   -0.000001
H    -0.094992    2.637079    0.873159   -0.062265   -0.001496    0.000025
Cl   -0.044809    1.109254    2.713696   -0.005578   -0.000129   -0.000003
13
* Frequency(17)  760.8913
C    -0.026715   -1.858281    0.001688   -0.146336   -0.003272   -0.000003
C    -0.031838   -1.169341    1.207590   -0.116201   -0.002560   -0.000023
C     0.000981    0.218886    1.203612    0.071612    0.001613    0.000009
C     0.008998    0.942849    0.007853    0.141771    0.003103   -0.000002
C    -0.051692    0.237829   -1.195756   -0.082763   -0.001830    0.000016
C    -0.034620   -1.148967   -1.196315   -0.123207   -0.002738    0.000009
H     0.524288   -2.928025    0.001296    1.406088    0.031549    0.000039
H     0.280249   -1.690935    2.151327    0.768531    0.017227   -0.000095
H     0.163764    0.807715   -2.118800    0.589359    0.013089   -0.000011
H     0.357678   -1.670899   -2.139935    0.997995    0.022247    0.000079
O    -0.078561    2.295297   -0.032669   -0.029204   -0.000653   -0.000001
H    -0.097873    2.637010    0.873161   -0.062265   -0.001496    0.000025
Cl   -0.045067    1.109248    2.713696   -0.005578   -0.000129   -0.000003
13
* Frequency(17)  760.8913
C    -0.028107   -1.858312    0.001688   -0.146336   -0.003272   -0.000003
C    -0.032944   -1.169365    1.207590   -0.116201   -0.002560   -0.000023
C     0.001662    0.218902    1.203612    0.071612    0.001613    0.000009
C     0.010347    0.942878    0.007853    0.141771    0.003103   -0.000002
C    -0.052479    0.237812   -1.195756   -0.082763   -0.001830    0.000016
C    -0.035792   -1.148993   -1.196315   -0.123207   -0.002738    0.000009
H     0.537666   -2.927724    0.001297    1.406088    0.031549    0.000039
H     0.287562   -1.690771    2.151326    0.768531    0.017227   -0.000095
H     0.169371    0.807839   -2.118800    0.589359    0.013089   -0.000011
H     0.367173   -1.670687   -2.139935    0.997995    0.022247    0.000079
O    -0.078839    2.295290   -0.032669   -0.029204   -0.000653   -0.000001
H    -0.098466    2.636995    0.873161   -0.062265   -0.001496    0.000025
Cl   -0.045120    1.109247    2.713696   -0.005578   -0.000129   -0.000003
13
* Frequency(17)  760.8913
C    -0.023969   -1.858219    0.001688   -0.146336   -0.003272   -0.000003
C    -0.029657   -1.169293    1.207590   -0.116201   -0.002560   -0.000023
C    -0.000363    0.218856    1.203612    0.071612    0.001613    0.000009
C     0.006337    0.942791    0.007853    0.141771    0.003103   -0.000002
C    -0.050139    0.237864   -1.195756   -0.082763   -0.001830    0.000016
C    -0.032307   -1.148915   -1.196315   -0.123207   -0.002738    0.000009
H     0.497896   -2.928617    0.001296    1.406088    0.031549    0.000039
H     0.265824   -1.691259    2.151329    0.768531    0.017227   -0.000095
H     0.152702    0.807469   -2.118800    0.589359    0.013089   -0.000011
H     0.338946   -1.671317   -2.139937    0.997995    0.022247    0.000079
O    -0.078013    2.295309   -0.032669   -0.029204   -0.000653   -0.000001
H    -0.096705    2.637038    0.873160   -0.062265   -0.001496    0.000025
Cl   -0.044962    1.109251    2.713696   -0.005578   -0.000129   -0.000003
13
* Frequency(17)  760.8913
C    -0.014747   -1.858013    0.001688   -0.146336   -0.003272   -0.000003
C    -0.022335   -1.169131    1.207592   -0.116201   -0.002560   -0.000023
C    -0.004876    0.218754    1.203611    0.071612    0.001613    0.000009
C    -0.002597    0.942595    0.007853    0.141771    0.003103   -0.000002
C    -0.044923    0.237979   -1.195757   -0.082763   -0.001830    0.000016
C    -0.024543   -1.148743   -1.196315   -0.123207   -0.002738    0.000009
H     0.409288   -2.930605    0.001293    1.406088    0.031549    0.000039
H     0.217394   -1.692344    2.151335    0.768531    0.017227   -0.000095
H     0.115562    0.806644   -2.118799    0.589359    0.013089   -0.000011
H     0.276055   -1.672718   -2.139942    0.997995    0.022247    0.000079
O    -0.076172    2.295350   -0.032669   -0.029204   -0.000653   -0.000001
H    -0.092781    2.637132    0.873159   -0.062265   -0.001496    0.000025
Cl   -0.044610    1.109259    2.713696   -0.005578   -0.000129   -0.000003
13
* Frequency(17)  760.8913
C    -0.001442   -1.857715    0.001688   -0.146336   -0.003272   -0.000003
C    -0.011769   -1.168899    1.207594   -0.116201   -0.002560   -0.000023
C    -0.011387    0.218608    1.203611    0.071612    0.001613    0.000009
C    -0.015487    0.942313    0.007853    0.141771    0.003103   -0.000002
C    -0.037398    0.238145   -1.195759   -0.082763   -0.001830    0.000016
C    -0.013341   -1.148494   -1.196316   -0.123207   -0.002738    0.000009
H     0.281444   -2.933473    0.001290    1.406088    0.031549    0.000039
H     0.147517   -1.693911    2.151343    0.768531    0.017227   -0.000095
H     0.061977    0.805454   -2.118798    0.589359    0.013089   -0.000011
H     0.185316   -1.674741   -2.139949    0.997995    0.022247    0.000079
O    -0.073517    2.295409   -0.032669   -0.029204   -0.000653   -0.000001
H    -0.087120    2.637268    0.873156   -0.062265   -0.001496    0.000025
Cl   -0.044103    1.109271    2.713696   -0.005578   -0.000129   -0.000003
13
* Frequency(17)  760.8913
C     0.014505   -1.857359    0.001689   -0.146336   -0.003272   -0.000003
C     0.000893   -1.168620    1.207596   -0.116201   -0.002560   -0.000023
C    -0.019191    0.218432    1.203610    0.071612    0.001613    0.000009
C    -0.030936    0.941975    0.007853    0.141771    0.003103   -0.000002
C    -0.028379    0.238345   -1.195760   -0.082763   -0.001830    0.000016
C     0.000085   -1.148196   -1.196317   -0.123207   -0.002738    0.000009
H     0.128218   -2.936911    0.001285    1.406088    0.031549    0.000039
H     0.063768   -1.695788    2.151354    0.768531    0.017227   -0.000095
H    -0.002248    0.804028   -2.118797    0.589359    0.013089   -0.000011
H     0.076561   -1.677166   -2.139958    0.997995    0.022247    0.000079
O    -0.070335    2.295480   -0.032669   -0.029204   -0.000653   -0.000001
H    -0.080334    2.637431    0.873153   -0.062265   -0.001496    0.000025
Cl   -0.043495    1.109285    2.713696   -0.005578   -0.000129   -0.000003
13
* Frequency(17)  760.8913
C     0.031365   -1.856982    0.001689   -0.146336   -0.003272   -0.000003
C     0.014282   -1.168325    1.207599   -0.116201   -0.002560   -0.000023
C    -0.027442    0.218246    1.203609    0.071612    0.001613    0.000009
C    -0.047271    0.941617    0.007854    0.141771    0.003103   -0.000002
C    -0.018843    0.238556   -1.195762   -0.082763   -0.001830    0.000016
C     0.014281   -1.147880   -1.196318   -0.123207   -0.002738    0.000009
H    -0.033786   -2.940546    0.001281    1.406088    0.031549    0.000039
H    -0.024779   -1.697773    2.151365    0.768531    0.017227   -0.000095
H    -0.070152    0.802520   -2.118796    0.589359    0.013089   -0.000011
H    -0.038425   -1.679729   -2.139967    0.997995    0.022247    0.000079
O    -0.066970    2.295556   -0.032669   -0.029204   -0.000653   -0.000001
H    -0.073160    2.637603    0.873151   -0.062265   -0.001496    0.000025
Cl   -0.042853    1.109299    2.713697   -0.005578   -0.000129   -0.000003
13
* Frequency(17)  760.8913
C     0.047312   -1.856625    0.001689   -0.146336   -0.003272   -0.000003
C     0.026945   -1.168046    1.207602   -0.116201   -0.002560   -0.000023
C    -0.035246    0.218070    1.203608    0.071612    0.001613    0.000009
C    -0.062720    0.941279    0.007854    0.141771    0.003103   -0.000002
C    -0.009824    0.238755   -1.195764   -0.082763   -0.001830    0.000016
C     0.027707   -1.147582   -1.196319   -0.123207   -0.002738    0.000009
H    -0.187012   -2.943984    0.001277    1.406088    0.031549    0.000039
H    -0.108529   -1.699650    2.151375    0.768531    0.017227   -0.000095
H    -0.134376    0.801093   -2.118794    0.589359    0.013089   -0.000011
H    -0.147180   -1.682153   -2.139975    0.997995    0.022247    0.000079
O    -0.063787    2.295627   -0.032669   -0.029204   -0.000653   -0.000001
H    -0.066375    2.637766    0.873148   -0.062265   -0.001496    0.000025
Cl   -0.042245    1.109313    2.713697   -0.005578   -0.000129   -0.000003
13
* Frequency(17)  760.8913
C     0.060617   -1.856328    0.001690   -0.146336   -0.003272   -0.000003
C     0.037510   -1.167813    1.207604   -0.116201   -0.002560   -0.000023
C    -0.041757    0.217924    1.203607    0.071612    0.001613    0.000009
C    -0.075610    0.940997    0.007854    0.141771    0.003103   -0.000002
C    -0.002299    0.238922   -1.195765   -0.082763   -0.001830    0.000016
C     0.038909   -1.147333   -1.196320   -0.123207   -0.002738    0.000009
H    -0.314857   -2.946853    0.001273    1.406088    0.031549    0.000039
H    -0.178405   -1.701216    2.151384    0.768531    0.017227   -0.000095
H    -0.187962    0.799903   -2.118793    0.589359    0.013089   -0.000011
H    -0.237919   -1.684176   -2.139982    0.997995    0.022247    0.000079
O    -0.061132    2.295686   -0.032669   -0.029204   -0.000653   -0.000001
H    -0.060714    2.637902    0.873146   -0.062265   -0.001496    0.000025
Cl   -0.041738    1.109325    2.713697   -0.005578   -0.000129   -0.000003
13
* Frequency(17)  760.8913
C     0.069839   -1.856121    0.001690   -0.146336   -0.003272   -0.000003
C     0.044832   -1.167652    1.207605   -0.116201   -0.002560   -0.000023
C    -0.046270    0.217822    1.203606    0.071612    0.001613    0.000009
C    -0.084544    0.940801    0.007854    0.141771    0.003103   -0.000002
C     0.002916    0.239037   -1.195766   -0.082763   -0.001830    0.000016
C     0.046674   -1.147160   -1.196321   -0.123207   -0.002738    0.000009
H    -0.403464   -2.948841    0.001271    1.406088    0.031549    0.000039
H    -0.226836   -1.702302    2.151390    0.768531    0.017227   -0.000095
H    -0.225101    0.799079   -2.118793    0.589359    0.013089   -0.000011
H    -0.300810   -1.685578   -2.139987    0.997995    0.022247    0.000079
O    -0.059292    2.295727   -0.032669   -0.029204   -0.000653   -0.000001
H    -0.056790    2.637996    0.873144   -0.062265   -0.001496    0.000025
Cl   -0.041386    1.109333    2.713697   -0.005578   -0.000129   -0.000003
13
* Frequency(17)  760.8913
C     0.073978   -1.856029    0.001690   -0.146336   -0.003272   -0.000003
C     0.048119   -1.167579    1.207606   -0.116201   -0.002560   -0.000023
C    -0.048295    0.217777    1.203606    0.071612    0.001613    0.000009
C    -0.088554    0.940713    0.007854    0.141771    0.003103   -0.000002
C     0.005257    0.239089   -1.195767   -0.082763   -0.001830    0.000016
C     0.050158   -1.147083   -1.196321   -0.123207   -0.002738    0.000009
H    -0.443234   -2.949733    0.001270    1.406088    0.031549    0.000039
H    -0.248573   -1.702789    2.151393    0.768531    0.017227   -0.000095
H    -0.241771    0.798708   -2.118792    0.589359    0.013089   -0.000011
H    -0.329037   -1.686207   -2.139989    0.997995    0.022247    0.000079
O    -0.058466    2.295746   -0.032669   -0.029204   -0.000653   -0.000001
H    -0.055029    2.638039    0.873143   -0.062265   -0.001496    0.000025
Cl   -0.041228    1.109337    2.713697   -0.005578   -0.000129   -0.000003
13
* Frequency(17)  760.8913
C     0.072586   -1.856060    0.001690   -0.146336   -0.003272   -0.000003
C     0.047013   -1.167603    1.207605   -0.116201   -0.002560   -0.000023
C    -0.047614    0.217792    1.203606    0.071612    0.001613    0.000009
C    -0.087205    0.940743    0.007854    0.141771    0.003103   -0.000002
C     0.004470    0.239071   -1.195767   -0.082763   -0.001830    0.000016
C     0.048986   -1.147109   -1.196321   -0.123207   -0.002738    0.000009
H    -0.429856   -2.949433    0.001270    1.406088    0.031549    0.000039
H    -0.241261   -1.702625    2.151392    0.768531    0.017227   -0.000095
H    -0.236163    0.798833   -2.118792    0.589359    0.013089   -0.000011
H    -0.319542   -1.685995   -2.139989    0.997995    0.022247    0.000079
O    -0.058743    2.295739   -0.032669   -0.029204   -0.000653   -0.000001
H    -0.055622    2.638024    0.873143   -0.062265   -0.001496    0.000025
Cl   -0.041281    1.109336    2.713697   -0.005578   -0.000129   -0.000003
13
* Frequency(17)  760.8913
C     0.065813   -1.856211    0.001690   -0.146336   -0.003272   -0.000003
C     0.041635   -1.167722    1.207604   -0.116201   -0.002560   -0.000023
C    -0.044299    0.217867    1.203607    0.071612    0.001613    0.000009
C    -0.080644    0.940887    0.007854    0.141771    0.003103   -0.000002
C     0.000639    0.238987   -1.195766   -0.082763   -0.001830    0.000016
C     0.043284   -1.147236   -1.196320   -0.123207   -0.002738    0.000009
H    -0.364780   -2.947973    0.001272    1.406088    0.031549    0.000039
H    -0.205692   -1.701828    2.151387    0.768531    0.017227   -0.000095
H    -0.208887    0.799439   -2.118793    0.589359    0.013089   -0.000011
H    -0.273353   -1.684966   -2.139985    0.997995    0.022247    0.000079
O    -0.060095    2.295709   -0.032669   -0.029204   -0.000653   -0.000001
H    -0.058503    2.637955    0.873145   -0.062265   -0.001496    0.000025
Cl   -0.041540    1.109330    2.713697   -0.005578   -0.000129   -0.000003
13
* Frequency(17)  760.8913
C     0.054394   -1.856467    0.001690   -0.146336   -0.003272   -0.000003
C     0.032568   -1.167922    1.207603   -0.116201   -0.002560   -0.000023
C    -0.038711    0.217992    1.203607    0.071612    0.001613    0.000009
C    -0.069581    0.941129    0.007854    0.141771    0.003103   -0.000002
C    -0.005819    0.238844   -1.195765   -0.082763   -0.001830    0.000016
C     0.033669   -1.147449   -1.196320   -0.123207   -0.002738    0.000009
H    -0.255057   -2.945511    0.001275    1.406088    0.031549    0.000039
H    -0.145720   -1.700484    2.151380    0.768531    0.017227   -0.000095
H    -0.162897    0.800460   -2.118794    0.589359    0.013089   -0.000011
H    -0.195475   -1.683230   -2.139979    0.997995    0.022247    0.000079
O    -0.062374    2.295658   -0.032669   -0.029204   -0.000653   -0.000001
H    -0.063362    2.637839    0.873147   -0.062265   -0.001496    0.000025
Cl   -0.041975    1.109320    2.713697   -0.005578   -0.000129   -0.000003
13
* Frequency(17)  760.8913
C     0.039566   -1.856798    0.001689   -0.146336   -0.003272   -0.000003
C     0.020793   -1.168181    1.207600   -0.116201   -0.002560   -0.000023
C    -0.031455    0.218156    1.203608    0.071612    0.001613    0.000009
C    -0.055215    0.941443    0.007854    0.141771    0.003103   -0.000002
C    -0.014206    0.238658   -1.195763   -0.082763   -0.001830    0.000016
C     0.021185   -1.147727   -1.196319   -0.123207   -0.002738    0.000009
H    -0.112579   -2.942314    0.001279    1.406088    0.031549    0.000039
H    -0.067845   -1.698738    2.151370    0.768531    0.017227   -0.000095
H    -0.103177    0.801786   -2.118795    0.589359    0.013089   -0.000011
H    -0.094349   -1.680975   -2.139971    0.997995    0.022247    0.000079
O    -0.065333    2.295592   -0.032669   -0.029204   -0.000653   -0.000001
H    -0.069671    2.637687    0.873149   -0.062265   -0.001496    0.000025
Cl   -0.042540    1.109307    2.713697   -0.005578   -0.000129   -0.000003
13
* Frequency(17)  760.8913
C     0.022935   -1.857170    0.001689   -0.146336   -0.003272   -0.000003
C     0.007588   -1.168472    1.207598   -0.116201   -0.002560   -0.000023
C    -0.023316    0.218339    1.203609    0.071612    0.001613    0.000009
C    -0.039104    0.941796    0.007854    0.141771    0.003103   -0.000002
C    -0.023611    0.238450   -1.195761   -0.082763   -0.001830    0.000016
C     0.007183   -1.148038   -1.196318   -0.123207   -0.002738    0.000009
H     0.047216   -2.938729    0.001283    1.406088    0.031549    0.000039
H     0.019494   -1.696780    2.151359    0.768531    0.017227   -0.000095
H    -0.036200    0.803274   -2.118796    0.589359    0.013089   -0.000011
H     0.019068   -1.678447   -2.139962    0.997995    0.022247    0.000079
O    -0.068652    2.295518   -0.032669   -0.029204   -0.000653   -0.000001
H    -0.076747    2.637517    0.873152   -0.062265   -0.001496    0.000025
Cl   -0.043174    1.109292    2.713696   -0.005578   -0.000129   -0.000003
