13
* (null), Energy   -1000.0000000
C     0.022935   -1.857170    0.001689    0.000677   -0.033498   -0.023285
C     0.007588   -1.168472    1.207598    0.007397   -0.321417    0.125249
C    -0.023316    0.218339    1.203609    0.004545   -0.229992    0.251707
C    -0.039104    0.941796    0.007854   -0.000965    0.027395    0.427734
C    -0.023611    0.238450   -1.195761   -0.005189    0.252367    0.481500
C     0.007183   -1.148038   -1.196318   -0.007727    0.340833    0.192725
H     0.047216   -2.938729    0.001283    0.000855   -0.033305   -0.400582
H     0.019494   -1.696780    2.151359    0.010900   -0.446001    0.059540
H    -0.036200    0.803274   -2.118796   -0.009318    0.486186    0.630461
H     0.019068   -1.678447   -2.139962   -0.013767    0.622490    0.038744
O    -0.068652    2.295518   -0.032669   -0.000827    0.032189   -0.488142
H    -0.076747    2.637517    0.873152   -0.015706    0.873137   -0.818107
Cl   -0.043174    1.109292    2.713696    0.001569   -0.069336   -0.258932
13
* Frequency(12)  496.1928
C     0.023012   -1.860977   -0.000957    0.000677   -0.033498   -0.023285
C     0.008428   -1.205000    1.221832    0.007397   -0.321417    0.125249
C    -0.022800    0.192202    1.232214    0.004545   -0.229992    0.251707
C    -0.039213    0.944909    0.056463   -0.000965    0.027395    0.427734
C    -0.024201    0.267130   -1.141041   -0.005189    0.252367    0.481500
C     0.006305   -1.109304   -1.174415   -0.007727    0.340833    0.192725
H     0.047313   -2.942514   -0.044241    0.000855   -0.033305   -0.400582
H     0.020733   -1.747466    2.158126    0.010900   -0.446001    0.059540
H    -0.037259    0.858526   -2.047148   -0.009318    0.486186    0.630461
H     0.017503   -1.607704   -2.135559   -0.013767    0.622490    0.038744
O    -0.068746    2.299176   -0.088144   -0.000827    0.032189   -0.488142
H    -0.078532    2.736745    0.780178   -0.015706    0.873137   -0.818107
Cl   -0.042996    1.101412    2.684270    0.001569   -0.069336   -0.258932
13
* Frequency(12)  496.1928
C     0.023081   -1.864372   -0.003317    0.000677   -0.033498   -0.023285
C     0.009178   -1.237569    1.234523    0.007397   -0.321417    0.125249
C    -0.022339    0.168897    1.257720    0.004545   -0.229992    0.251707
C    -0.039311    0.947685    0.099805   -0.000965    0.027395    0.427734
C    -0.024727    0.292703   -1.092251   -0.005189    0.252367    0.481500
C     0.005522   -1.074767   -1.154887   -0.007727    0.340833    0.192725
H     0.047400   -2.945889   -0.084832    0.000855   -0.033305   -0.400582
H     0.021837   -1.792659    2.164159    0.010900   -0.446001    0.059540
H    -0.038203    0.907791   -1.983263   -0.009318    0.486186    0.630461
H     0.016108   -1.544628   -2.131633   -0.013767    0.622490    0.038744
O    -0.068830    2.302438   -0.137607   -0.000827    0.032189   -0.488142
H    -0.080124    2.825219    0.697280   -0.015706    0.873137   -0.818107
Cl   -0.042837    1.094387    2.658033    0.001569   -0.069336   -0.258932
13
* Frequency(12)  496.1928
C     0.023134   -1.866986   -0.005134    0.000677   -0.033498   -0.023285
C     0.009755   -1.262650    1.244297    0.007397   -0.321417    0.125249
C    -0.021985    0.150950    1.277361    0.004545   -0.229992    0.251707
C    -0.039386    0.949823    0.133183   -0.000965    0.027395    0.427734
C    -0.025132    0.312396   -1.054678   -0.005189    0.252367    0.481500
C     0.004919   -1.048171   -1.139848   -0.007727    0.340833    0.192725
H     0.047466   -2.948487   -0.116091    0.000855   -0.033305   -0.400582
H     0.022688   -1.827462    2.168805    0.010900   -0.446001    0.059540
H    -0.038930    0.945730   -1.934066   -0.009318    0.486186    0.630461
H     0.015034   -1.496052   -2.128610   -0.013767    0.622490    0.038744
O    -0.068894    2.304950   -0.175699   -0.000827    0.032189   -0.488142
H    -0.081349    2.893353    0.633440   -0.015706    0.873137   -0.818107
Cl   -0.042714    1.088976    2.637827    0.001569   -0.069336   -0.258932
13
* Frequency(12)  496.1928
C     0.023165   -1.868536   -0.006211    0.000677   -0.033498   -0.023285
C     0.010097   -1.277526    1.250093    0.007397   -0.321417    0.125249
C    -0.021774    0.140305    1.289011    0.004545   -0.229992    0.251707
C    -0.039431    0.951091    0.152980   -0.000965    0.027395    0.427734
C    -0.025372    0.324076   -1.032393   -0.005189    0.252367    0.481500
C     0.004561   -1.032397   -1.130928   -0.007727    0.340833    0.192725
H     0.047506   -2.950029   -0.134630    0.000855   -0.033305   -0.400582
H     0.023192   -1.848104    2.171561    0.010900   -0.446001    0.059540
H    -0.039361    0.968232   -1.904887   -0.009318    0.486186    0.630461
H     0.014397   -1.467242   -2.126817   -0.013767    0.622490    0.038744
O    -0.068933    2.306439   -0.198291   -0.000827    0.032189   -0.488142
H    -0.082076    2.933764    0.595577   -0.015706    0.873137   -0.818107
Cl   -0.042642    1.085767    2.625843    0.001569   -0.069336   -0.258932
13
* Frequency(12)  496.1928
C     0.023171   -1.868855   -0.006433    0.000677   -0.033498   -0.023285
C     0.010168   -1.280584    1.251285    0.007397   -0.321417    0.125249
C    -0.021731    0.138117    1.291406    0.004545   -0.229992    0.251707
C    -0.039440    0.951351    0.157049   -0.000965    0.027395    0.427734
C    -0.025421    0.326477   -1.027812   -0.005189    0.252367    0.481500
C     0.004488   -1.029154   -1.129094   -0.007727    0.340833    0.192725
H     0.047514   -2.950346   -0.138442    0.000855   -0.033305   -0.400582
H     0.023296   -1.852347    2.172127    0.010900   -0.446001    0.059540
H    -0.039450    0.972858   -1.898889   -0.009318    0.486186    0.630461
H     0.014266   -1.461320   -2.126448   -0.013767    0.622490    0.038744
O    -0.068941    2.306746   -0.202935   -0.000827    0.032189   -0.488142
H    -0.082226    2.942071    0.587793   -0.015706    0.873137   -0.818107
Cl   -0.042627    1.085107    2.623380    0.001569   -0.069336   -0.258932
13
* Frequency(12)  496.1928
C     0.023152   -1.867907   -0.005774    0.000677   -0.033498   -0.023285
C     0.009958   -1.271493    1.247743    0.007397   -0.321417    0.125249
C    -0.021860    0.144622    1.284286    0.004545   -0.229992    0.251707
C    -0.039413    0.950576    0.144951   -0.000965    0.027395    0.427734
C    -0.025274    0.319339   -1.041430   -0.005189    0.252367    0.481500
C     0.004706   -1.038794   -1.134545   -0.007727    0.340833    0.192725
H     0.047490   -2.949404   -0.127112    0.000855   -0.033305   -0.400582
H     0.022988   -1.839733    2.170443    0.010900   -0.446001    0.059540
H    -0.039186    0.959106   -1.916721   -0.009318    0.486186    0.630461
H     0.014655   -1.478926   -2.127544   -0.013767    0.622490    0.038744
O    -0.068917    2.305835   -0.189129   -0.000827    0.032189   -0.488142
H    -0.081782    2.917376    0.610932   -0.015706    0.873137   -0.818107
Cl   -0.042671    1.087069    2.630703    0.001569   -0.069336   -0.258932
13
* Frequency(12)  496.1928
C     0.023110   -1.865796   -0.004307    0.000677   -0.033498   -0.023285
C     0.009492   -1.251238    1.239850    0.007397   -0.321417    0.125249
C    -0.022146    0.159115    1.268425    0.004545   -0.229992    0.251707
C    -0.039352    0.948850    0.117997   -0.000965    0.027395    0.427734
C    -0.024947    0.303436   -1.071773   -0.005189    0.252367    0.481500
C     0.005193   -1.060272   -1.146690   -0.007727    0.340833    0.192725
H     0.047436   -2.947305   -0.101868    0.000855   -0.033305   -0.400582
H     0.022301   -1.811627    2.166691    0.010900   -0.446001    0.059540
H    -0.038599    0.928468   -1.956451   -0.009318    0.486186    0.630461
H     0.015523   -1.518154   -2.129985   -0.013767    0.622490    0.038744
O    -0.068865    2.303807   -0.158367   -0.000827    0.032189   -0.488142
H    -0.080792    2.862353    0.662487   -0.015706    0.873137   -0.818107
Cl   -0.042770    1.091438    2.647020    0.001569   -0.069336   -0.258932
13
* Frequency(12)  496.1928
C     0.023048   -1.862750   -0.002190    0.000677   -0.033498   -0.023285
C     0.008820   -1.222014    1.228462    0.007397   -0.321417    0.125249
C    -0.022559    0.180027    1.245539    0.004545   -0.229992    0.251707
C    -0.039264    0.946359    0.079106   -0.000965    0.027395    0.427734
C    -0.024476    0.280490   -1.115552   -0.005189    0.252367    0.481500
C     0.005896   -1.091261   -1.164213   -0.007727    0.340833    0.192725
H     0.047358   -2.944277   -0.065446    0.000855   -0.033305   -0.400582
H     0.021310   -1.771076    2.161278    0.010900   -0.446001    0.059540
H    -0.037752    0.884263   -2.013773   -0.009318    0.486186    0.630461
H     0.016775   -1.574752   -2.133508   -0.013767    0.622490    0.038744
O    -0.068790    2.300880   -0.113984   -0.000827    0.032189   -0.488142
H    -0.079364    2.782966    0.736871   -0.015706    0.873137   -0.818107
Cl   -0.042913    1.097742    2.670563    0.001569   -0.069336   -0.258932
13
* Frequency(12)  496.1928
C     0.022974   -1.859100    0.000348    0.000677   -0.033498   -0.023285
C     0.008014   -1.186988    1.214813    0.007397   -0.321417    0.125249
C    -0.023055    0.205090    1.218109    0.004545   -0.229992    0.251707
C    -0.039159    0.943374    0.032495   -0.000965    0.027395    0.427734
C    -0.023910    0.252989   -1.168023   -0.005189    0.252367    0.481500
C     0.006738   -1.128403   -1.185215   -0.007727    0.340833    0.192725
H     0.047265   -2.940647   -0.021794    0.000855   -0.033305   -0.400582
H     0.020122   -1.722474    2.154789    0.010900   -0.446001    0.059540
H    -0.036736    0.831282   -2.082477   -0.009318    0.486186    0.630461
H     0.018275   -1.642587   -2.137730   -0.013767    0.622490    0.038744
O    -0.068700    2.297372   -0.060790   -0.000827    0.032189   -0.488142
H    -0.077652    2.687817    0.826022   -0.015706    0.873137   -0.818107
Cl   -0.043084    1.105298    2.698780    0.001569   -0.069336   -0.258932
13
* Frequency(12)  496.1928
C     0.022896   -1.855240    0.003030    0.000677   -0.033498   -0.023285
C     0.007161   -1.149956    1.200382    0.007397   -0.321417    0.125249
C    -0.023578    0.231588    1.189109    0.004545   -0.229992    0.251707
C    -0.039048    0.940218   -0.016787   -0.000965    0.027395    0.427734
C    -0.023312    0.223912   -1.223500   -0.005189    0.252367    0.481500
C     0.007628   -1.167673   -1.207420   -0.007727    0.340833    0.192725
H     0.047167   -2.936810    0.024360    0.000855   -0.033305   -0.400582
H     0.018866   -1.671087    2.147929    0.010900   -0.446001    0.059540
H    -0.035663    0.775266   -2.155116   -0.009318    0.486186    0.630461
H     0.019861   -1.714308   -2.142194   -0.013767    0.622490    0.038744
O    -0.068605    2.293664   -0.004548   -0.000827    0.032189   -0.488142
H    -0.075843    2.587217    0.920282   -0.015706    0.873137   -0.818107
Cl   -0.043264    1.113286    2.728613    0.001569   -0.069336   -0.258932
13
* Frequency(12)  496.1928
C     0.022822   -1.851590    0.005568    0.000677   -0.033498   -0.023285
C     0.006355   -1.114930    1.186733    0.007397   -0.321417    0.125249
C    -0.024074    0.256651    1.161679    0.004545   -0.229992    0.251707
C    -0.038943    0.937232   -0.063399   -0.000965    0.027395    0.427734
C    -0.022747    0.196411   -1.275970   -0.005189    0.252367    0.481500
C     0.008470   -1.204814   -1.228422   -0.007727    0.340833    0.192725
H     0.047074   -2.933181    0.068013    0.000855   -0.033305   -0.400582
H     0.017679   -1.622485    2.141441    0.010900   -0.446001    0.059540
H    -0.034647    0.722284   -2.223819   -0.009318    0.486186    0.630461
H     0.021361   -1.782143   -2.146416   -0.013767    0.622490    0.038744
O    -0.068515    2.290156    0.048647   -0.000827    0.032189   -0.488142
H    -0.074131    2.492068    1.009434   -0.015706    0.873137   -0.818107
Cl   -0.043435    1.120842    2.756830    0.001569   -0.069336   -0.258932
13
* Frequency(12)  496.1928
C     0.022761   -1.848544    0.007685    0.000677   -0.033498   -0.023285
C     0.005683   -1.085706    1.175346    0.007397   -0.321417    0.125249
C    -0.024487    0.277563    1.138794    0.004545   -0.229992    0.251707
C    -0.038855    0.934742   -0.102289   -0.000965    0.027395    0.427734
C    -0.022275    0.173465   -1.319749   -0.005189    0.252367    0.481500
C     0.009173   -1.235803   -1.245945   -0.007727    0.340833    0.192725
H     0.046996   -2.930153    0.104434    0.000855   -0.033305   -0.400582
H     0.016688   -1.581934    2.136028    0.010900   -0.446001    0.059540
H    -0.033800    0.678079   -2.281142   -0.009318    0.486186    0.630461
H     0.022613   -1.838741   -2.149939   -0.013767    0.622490    0.038744
O    -0.068439    2.287229    0.093029   -0.000827    0.032189   -0.488142
H    -0.072703    2.412681    1.083817   -0.015706    0.873137   -0.818107
Cl   -0.043578    1.127146    2.780372    0.001569   -0.069336   -0.258932
13
* Frequency(12)  496.1928
C     0.022718   -1.846433    0.009152    0.000677   -0.033498   -0.023285
C     0.005217   -1.065451    1.167453    0.007397   -0.321417    0.125249
C    -0.024773    0.292056    1.122932    0.004545   -0.229992    0.251707
C    -0.038794    0.933015   -0.129244   -0.000965    0.027395    0.427734
C    -0.021948    0.157562   -1.350092   -0.005189    0.252367    0.481500
C     0.009660   -1.257282   -1.258090   -0.007727    0.340833    0.192725
H     0.046942   -2.928054    0.129678    0.000855   -0.033305   -0.400582
H     0.016001   -1.553828    2.132275    0.010900   -0.446001    0.059540
H    -0.033213    0.647441   -2.320872   -0.009318    0.486186    0.630461
H     0.023481   -1.877968   -2.152380   -0.013767    0.622490    0.038744
O    -0.068387    2.285201    0.123791   -0.000827    0.032189   -0.488142
H    -0.071713    2.357658    1.135372   -0.015706    0.873137   -0.818107
Cl   -0.043677    1.131516    2.796690    0.001569   -0.069336   -0.258932
13
* Frequency(12)  496.1928
C     0.022699   -1.845486    0.009811    0.000677   -0.033498   -0.023285
C     0.005007   -1.056360    1.163910    0.007397   -0.321417    0.125249
C    -0.024902    0.298561    1.115812    0.004545   -0.229992    0.251707
C    -0.038767    0.932240   -0.141342   -0.000965    0.027395    0.427734
C    -0.021801    0.150424   -1.363711   -0.005189    0.252367    0.481500
C     0.009878   -1.266922   -1.263541   -0.007727    0.340833    0.192725
H     0.046918   -2.927112    0.141008    0.000855   -0.033305   -0.400582
H     0.015692   -1.541213    2.130591    0.010900   -0.446001    0.059540
H    -0.032950    0.633690   -2.338704   -0.009318    0.486186    0.630461
H     0.023870   -1.895575   -2.153476   -0.013767    0.622490    0.038744
O    -0.068364    2.284290    0.137597   -0.000827    0.032189   -0.488142
H    -0.071269    2.332963    1.158511   -0.015706    0.873137   -0.818107
Cl   -0.043721    1.133477    2.804013    0.001569   -0.069336   -0.258932
13
* Frequency(12)  496.1928
C     0.022706   -1.845805    0.009589    0.000677   -0.033498   -0.023285
C     0.005078   -1.059418    1.165102    0.007397   -0.321417    0.125249
C    -0.024859    0.296373    1.118207    0.004545   -0.229992    0.251707
C    -0.038776    0.932501   -0.137272   -0.000965    0.027395    0.427734
C    -0.021851    0.152825   -1.359130   -0.005189    0.252367    0.481500
C     0.009805   -1.263679   -1.261707   -0.007727    0.340833    0.192725
H     0.046926   -2.927429    0.137197    0.000855   -0.033305   -0.400582
H     0.015796   -1.545457    2.131158    0.010900   -0.446001    0.059540
H    -0.033038    0.638316   -2.332705   -0.009318    0.486186    0.630461
H     0.023739   -1.889652   -2.153108   -0.013767    0.622490    0.038744
O    -0.068372    2.284597    0.132953   -0.000827    0.032189   -0.488142
H    -0.071419    2.341270    1.150728   -0.015706    0.873137   -0.818107
Cl   -0.043707    1.132817    2.801550    0.001569   -0.069336   -0.258932
13
* Frequency(12)  496.1928
C     0.022737   -1.847355    0.008512    0.000677   -0.033498   -0.023285
C     0.005420   -1.074294    1.170899    0.007397   -0.321417    0.125249
C    -0.024648    0.285728    1.129857    0.004545   -0.229992    0.251707
C    -0.038821    0.933769   -0.117476   -0.000965    0.027395    0.427734
C    -0.022091    0.164505   -1.336845   -0.005189    0.252367    0.481500
C     0.009447   -1.247905   -1.252788   -0.007727    0.340833    0.192725
H     0.046965   -2.928970    0.118657    0.000855   -0.033305   -0.400582
H     0.016301   -1.566098    2.133914    0.010900   -0.446001    0.059540
H    -0.033469    0.660817   -2.303526   -0.009318    0.486186    0.630461
H     0.023102   -1.860842   -2.151314   -0.013767    0.622490    0.038744
O    -0.068410    2.286086    0.110361   -0.000827    0.032189   -0.488142
H    -0.072145    2.381681    1.112864   -0.015706    0.873137   -0.818107
Cl   -0.043634    1.129608    2.789566    0.001569   -0.069336   -0.258932
13
* Frequency(12)  496.1928
C     0.022790   -1.849969    0.006695    0.000677   -0.033498   -0.023285
C     0.005997   -1.099376    1.180672    0.007397   -0.321417    0.125249
C    -0.024294    0.267781    1.149498    0.004545   -0.229992    0.251707
C    -0.038896    0.935907   -0.084098   -0.000965    0.027395    0.427734
C    -0.022496    0.184198   -1.299272   -0.005189    0.252367    0.481500
C     0.008844   -1.221308   -1.237749   -0.007727    0.340833    0.192725
H     0.047032   -2.931569    0.087398    0.000855   -0.033305   -0.400582
H     0.017151   -1.600902    2.138560    0.010900   -0.446001    0.059540
H    -0.034197    0.698756   -2.254329   -0.009318    0.486186    0.630461
H     0.022028   -1.812267   -2.148291   -0.013767    0.622490    0.038744
O    -0.068475    2.288598    0.072269   -0.000827    0.032189   -0.488142
H    -0.073371    2.449815    1.049024   -0.015706    0.873137   -0.818107
Cl   -0.043511    1.124197    2.769360    0.001569   -0.069336   -0.258932
13
* Frequency(12)  496.1928
C     0.022858   -1.853363    0.004335    0.000677   -0.033498   -0.023285
C     0.006747   -1.131945    1.193364    0.007397   -0.321417    0.125249
C    -0.023833    0.244476    1.175004    0.004545   -0.229992    0.251707
C    -0.038994    0.938683   -0.040756   -0.000965    0.027395    0.427734
C    -0.023021    0.209770   -1.250481   -0.005189    0.252367    0.481500
C     0.008061   -1.186772   -1.218220   -0.007727    0.340833    0.192725
H     0.047119   -2.934944    0.046807    0.000855   -0.033305   -0.400582
H     0.018256   -1.646095    2.144593    0.010900   -0.446001    0.059540
H    -0.035141    0.748021   -2.190445   -0.009318    0.486186    0.630461
H     0.020633   -1.749190   -2.144365   -0.013767    0.622490    0.038744
O    -0.068558    2.291860    0.022806   -0.000827    0.032189   -0.488142
H    -0.074963    2.538289    0.966126   -0.015706    0.873137   -0.818107
Cl   -0.043352    1.117172    2.743123    0.001569   -0.069336   -0.258932
13
* Frequency(12)  496.1928
C     0.022935   -1.857170    0.001689    0.000677   -0.033498   -0.023285
C     0.007588   -1.168472    1.207598    0.007397   -0.321417    0.125249
C    -0.023316    0.218339    1.203609    0.004545   -0.229992    0.251707
C    -0.039104    0.941796    0.007854   -0.000965    0.027395    0.427734
C    -0.023611    0.238450   -1.195761   -0.005189    0.252367    0.481500
C     0.007183   -1.148038   -1.196318   -0.007727    0.340833    0.192725
H     0.047216   -2.938729    0.001283    0.000855   -0.033305   -0.400582
H     0.019494   -1.696780    2.151359    0.010900   -0.446001    0.059540
H    -0.036200    0.803274   -2.118796   -0.009318    0.486186    0.630461
H     0.019068   -1.678447   -2.139962   -0.013767    0.622490    0.038744
O    -0.068652    2.295518   -0.032669   -0.000827    0.032189   -0.488142
H    -0.076747    2.637517    0.873152   -0.015706    0.873137   -0.818107
Cl   -0.043174    1.109292    2.713696    0.001569   -0.069336   -0.258932
