60
# ORCA AIMD Position Step 0, t=0.00 fs, E_Pot=-1525.77127766 Hartree, Unit is Angstrom
 H      2.5154350113      0.0000000000      1.4030780063
 H     -1.2863480058      6.5848810295      1.4030780063
 H     -1.2577170056      2.1784300098      1.4030780063
 H      6.3458490284      2.1784300098      1.4030780063
 H      2.5440660114      4.4064510197      1.4030780063
 H      5.0881320228      0.0000000000      4.9745590223
 H      1.2863480058      6.5848810295      4.9745590223
 H     -2.5440660114      4.4064510197      4.9745590223
 H      5.0595000227      4.4064510197      4.9745590223
 H      1.2577170056      2.1784300098      4.9745590223
 H      3.4394500154      0.0000000000      0.0760440003
 H     -0.3623330016      6.5848810295      0.0760440003
 H     -1.7197250077      2.9786510133      0.0760440003
 H      5.8838410264      2.9786510133      0.0760440003
 H      2.0820580093      3.6062300162      0.0760440003
 H      4.1641160186      0.0000000000      3.6475250163
 H      0.3623330016      6.5848810295      3.6475250163
 H     -2.0820580093      3.6062300162      3.6475250163
 H      5.5215080247      3.6062300162      3.6475250163
 H      1.7197250077      2.9786510133      3.6475250163
 H      1.7103730077      5.7785300259      6.9918670313
 H     -2.0577570092      5.1768430232      6.9918670313
 H      0.3473840016      2.2143900099      6.9918670313
 H      5.5121560247      0.8063520036      6.9918670313
 H      1.7440260078      1.4080390063      6.9918670313
 H      4.1491670186      4.3704910196      6.9918670313
 H      2.0914100094      0.8063520036      3.4203860153
 H      5.8595400262      1.4080390063      3.4203860153
 H      3.4543990155      4.3704910196      3.4203860153
 H     -1.7103730077      5.7785300259      3.4203860153
 H      2.0577570092      5.1768430232      3.4203860153
 H     -0.3473840016      2.2143900099      3.4203860153
 O      2.4836440111      0.0000000000      0.3975630018
 O     -1.3181390059      6.5848810295      0.3975630018
 O     -1.2418220056      2.1508990096      0.3975630018
 O      6.3617440285      2.1508990096      0.3975630018
 O      2.5599610115      4.4339830199      0.3975630018
 O      5.1199220229      0.0000000000      3.9690440178
 O      1.3181390059      6.5848810295      3.9690440178
 O     -2.5599610115      4.4339830199      3.9690440178
 O      5.0436050226      4.4339830199      3.9690440178
 O      1.2418220056      2.1508990096      3.9690440178
 O      5.0229540225      0.0000000000      6.6399190297
 O      1.2211710055      6.5848810295      6.6399190297
 O     -2.5114770112      4.3500060195      6.6399190297
 O      5.0920890228      4.3500060195      6.6399190297
 O      1.2903060058      2.2348760100      6.6399190297
 O      2.5806120116      0.0000000000      3.0684380137
 O     -1.2211710055      6.5848810295      3.0684380137
 O     -1.2903060058      2.2348760100      3.0684380137
 O      6.3132600283      2.2348760100      3.0684380137
 O      2.5114770112      4.3500060195      3.0684380137
 H      5.5121560247     -0.8063520036      6.9918670313
 H      1.7103730077      7.3912330331      6.9918670313
 H     -3.4543990155      4.3704910196      6.9918670313
 H      5.5458090248      5.1768430232      6.9918670313
 H      2.0914100094     -0.8063520036      3.4203860153
 H     -1.7103730077      7.3912330331      3.4203860153
 H     -1.7440260078      1.4080390063      3.4203860153
 H      7.2561820325      2.2143900099      3.4203860153
60
# ORCA AIMD Position Step 1, t=0.50 fs, E_Pot=-1525.76721418 Hartree, Unit is Angstrom
 H      2.5268319402     -0.0009219813      1.4091756708
 H     -1.2890694707      6.6093424440      1.4290711917
 H     -1.2444067159      2.1776280106      1.4043370832
 H      6.3626122152      2.1628854901      1.4141417429
 H      2.5322693380      4.4158524691      1.3968716550
 H      5.0773657017      0.0099355801      4.9697902393
 H      1.2918625640      6.5763582907      4.9700054562
 H     -2.5335779705      4.3984010584      4.9732203481
 H      5.0453720509      4.4110147869      4.9749160337
 H      1.2621485743      2.1553633718      4.9694514044
 H      3.4461076325     -0.0046471525      0.0649744620
 H     -0.3592185451      6.5758147242      0.0797262400
 H     -1.7039270990      2.9716212307      0.0785674913
 H      5.8688571635      2.9767221361      0.0702884995
 H      2.0828820006      3.6034593974      0.0866892951
 H      4.1713880984     -0.0079886231      3.6464932282
 H      0.3653497430      6.5808726134      3.6492457434
 H     -2.0854764938      3.6145880245      3.6307103029
 H      5.5184925112      3.6269994685      3.6622853931
 H      1.7256849308      2.9758466279      3.6435086604
 H      1.6951759143      5.7676686398      6.9863664087
 H     -2.0675227682      5.1739933662      6.9929842704
 H      0.3505984323      2.2227178464      6.9898636792
 H      5.5193693862      0.8137530367      7.0017579458
 H      1.7456821592      1.4000808235      6.9872945686
 H      4.1519643992      4.3933412706      6.9968080079
 H      2.0869284689      0.8010846801      3.4195069106
 H      5.8585785627      1.4053674884      3.4263838871
 H      3.4416899996      4.3742839025      3.4212089494
 H     -1.7044765842      5.7940857312      3.4282710764
 H      2.0472680145      5.1781967921      3.4232595062
 H     -0.3451433432      2.2246331566      3.4125690456
 O      2.4862334522      0.0015825398      0.3930919597
 O     -1.3186909945      6.5893599829      0.4003792538
 O     -1.2400700017      2.1492364113      0.4005546025
 O      6.3598505776      2.1491215924      0.4006861915
 O      2.5578791716      4.4319703203      0.3926190420
 O      5.1179555709     -0.0024240384      3.9673645127
 O      1.3222966191      6.5830273849      3.9686928426
 O     -2.5576456885      4.4334758086      3.9706406444
 O      5.0392538559      4.4323069916      3.9715478973
 O      1.2410615355      2.1483499957      3.9689242909
 O      5.0203227493     -0.0014397084      6.6402286949
 O      1.2160741399      6.5864532620      6.6403916833
 O     -2.5101223346      4.3507765150      6.6403690159
 O      5.0898285479      4.3499936906      6.6398541497
 O      1.2920663830      2.2326717931      6.6387861959
 O      2.5804864703     -0.0047612748      3.0696077759
 O     -1.2177407773      6.5814933415      3.0672324709
 O     -1.2892129970      2.2313307304      3.0675435187
 O      6.3110396057      2.2308337294      3.0677041588
 O      2.5122317484      4.3464767642      3.0668960232
 H      5.5080920383     -0.8119932025      6.9964535717
 H      1.7153577675      7.3889516332      6.9877153673
 H     -3.4592454883      4.3631334620      6.9877454032
 H      5.5510547462      5.1771484126      6.9793339236
 H      2.0829648769     -0.7962503264      3.4202566469
 H     -1.7142524980      7.3986728143      3.4126502050
 H     -1.7416312478      1.4074836871      3.4124613030
 H      7.2563928715      2.2211048704      3.4239052650
60
# ORCA AIMD Position Step 2, t=1.00 fs, E_Pot=-1525.76458335 Hartree, Unit is Angstrom
 H      2.5390215125     -0.0017218397      1.4113356957
 H     -1.2908781944      6.6334910989      1.4504321642
 H     -1.2315074546      2.1776802441      1.4026997733
 H      6.3785806613      2.1483708156      1.4218973505
 H      2.5202292681      4.4246046646      1.3886987306
 H      5.0662499357      0.0197403641      4.9630105120
 H      1.2968484990      6.5679469753      4.9631821176
 H     -2.5229032076      4.3898707131      4.9697772171
 H      5.0316242098      4.4151232595      4.9727377462
 H      1.2668323834      2.1329864887      4.9633140571
 H      3.4491328118     -0.0089428827      0.0561609720
 H     -0.3594934070      6.5665137440      0.0856054954
 H     -1.6867786207      2.9628427317      0.0828844681
 H      5.8556012486      2.9713049248      0.0671706405
 H      2.0849693830      3.6028984783      0.0990678700
 H      4.1791264831     -0.0160049332      3.6456004804
 H      0.3695898384      6.5769621097      3.6514529601
 H     -2.0893864293      3.6236191550      3.6143953945
 H      5.5158048662      3.6471661619      3.6768532304
 H      1.7324999403      2.9744930475      3.6389643444
 H      1.6786902391      5.7601691462      6.9798366567
 H     -2.0789403441      5.1693367748      6.9933811127
 H      0.3566943778      2.2305146717      6.9870506665
 H      5.5248314485      0.8171526037      7.0101892486
 H      1.7452621410      1.3948290077      6.9818009036
 H      4.1577661401      4.4164465370      7.0007591836
 H      2.0819682317      0.7962288466      3.4184327280
 H      5.8572889130      1.4012112671      3.4326854871
 H      3.4306370351      4.3783964828      3.4221117814
 H     -1.7002904163      5.8074519945      3.4368208134
 H      2.0371362757      5.1797073816      3.4256838729
 H     -0.3422662388      2.2342983685      3.4048547409
 O      2.4890117633      0.0031511203      0.3886526318
 O     -1.3190796477      6.5938420020      0.4032680000
 O     -1.2383735803      2.1476511779      0.4035330217
 O      6.3578737942      2.1474957570      0.4037775555
 O      2.5557326202      4.4298512791      0.3876344760
 O      5.1160311980     -0.0048006463      3.9657393651
 O      1.3264336117      6.5811462944      3.9683850253
 O     -2.5553034893      4.4330139716      3.9722715414
 O      5.0348368750      4.4307128223      3.9741510764
 O      1.2402563497      2.1457166550      3.9688325758
 O      5.0178733561     -0.0028161890      6.6407615527
 O      1.2111241139      6.5879899182      6.6410606149
 O     -2.5088685269      4.3516265555      6.6409965994
 O      5.0874931250      4.3501017600      6.6399880241
 O      1.2937810727      2.2303390671      6.6378112214
 O      2.5802895614     -0.0096558634      3.0709287916
 O     -1.2143690602      6.5784312587      3.0661619989
 O     -1.2882349184      2.2276659872      3.0667871139
 O      6.3090547227      2.2268516777      3.0671149411
 O      2.5128371697      4.3428904826      3.0654610906
 H      5.5027410795     -0.8143283090      6.9999413586
 H      1.7191559644      7.3836547939      6.9826332435
 H     -3.4605320234      4.3563152380      6.9825590427
 H      5.5544579025      5.1750076464      6.9658576984
 H      2.0756193271     -0.7840905912      3.4190041567
 H     -1.7162953910      7.4025303209      3.4033818082
 H     -1.7375583773      1.4091423911      3.4034511192
 H      7.2530909610      2.2274238874      3.4260339597
60
# ORCA AIMD Position Step 3, t=1.50 fs, E_Pot=-1525.76380970 Hartree, Unit is Angstrom
 H      2.5518910988     -0.0024051496      1.4090260313
 H     -1.2917715218      6.6570700226      1.4657954912
 H     -1.2190713233      2.1785917631      1.3985575866
 H      6.3935022298      2.1351414527      1.4259738148
 H      2.5080810168      4.4327548883      1.3788145190
 H      5.0548828935      0.0293447545      4.9546742486
 H      1.3012909063      6.5596901760      4.9547682923
 H     -2.5120357345      4.3807931320      4.9646078679
 H      5.0183154813      4.4187422474      4.9684547163
 H      1.2717798496      2.1115137964      4.9566613924
 H      3.4484193576     -0.0128614255      0.0496331067
 H     -0.3630745676      6.5570551479      0.0936634518
 H     -1.6689259456      2.9534457250      0.0885674401
 H      5.8443054570      2.9621473607      0.0670619862
 H      2.0879347754      3.6038809460      0.1127650781
 H      4.1865259064     -0.0240313137      3.6444977971
 H      0.3750135027      6.5731793562      3.6541013403
 H     -2.0936104434      3.6329654363      3.5985804678
 H      5.5144640258      3.6649313516      3.6904962595
 H      1.7399847537      2.9742401779      3.6341828833
 H      1.6610155699      5.7560784417      6.9723648815
 H     -2.0915313078      5.1637145565      6.9934126497
 H      0.3652619931      2.2376800838      6.9836048913
 H      5.5281021744      0.8159090782      7.0168412324
 H      1.7427157054      1.3923080164      6.9754654436
 H      4.1660725601      4.4396574918      7.0038418377
 H      2.0767132712      0.7918137241      3.4170205060
 H      5.8557955010      1.3957709926      3.4391626288
 H      3.4220733243      4.3827863010      3.4233230684
 H     -1.6982549038      5.8177706455      3.4462707019
 H      2.0277278302      5.1807740278      3.4274003773
 H     -0.3388075850      2.2432044254      3.3973757450
 O      2.4919919541      0.0047046476      0.3842790366
 O     -1.3193097397      6.5983339449      0.4063100120
 O     -1.2366902315      2.1460714474      0.4064998835
 O      6.3558124975      2.1460222154      0.4068366049
 O      2.5535391563      4.4276636369      0.3826200474
 O      5.1141953516     -0.0071290405      3.9641676961
 O      1.3305525034      6.5792331566      3.9680827121
 O     -2.5529466753      4.4326227102      3.9739170360
 O      5.0302884252      4.4293153672      3.9768736678
 O      1.2394186069      2.1430138571      3.9687172032
 O      5.0156321114     -0.0040877315      6.6415379613
 O      1.2063066966      6.5894755670      6.6419087062
 O     -2.5077486544      4.3525026223      6.6417799133
 O      5.0850975815      4.3503232012      6.6403067862
 O      1.2954800513      2.2278802701      6.6369785349
 O      2.5800382495     -0.0146205201      3.0723859181
 O     -1.2110460809      6.5757714248      3.0652207440
 O     -1.2873524666      2.2239363098      3.0661404952
 O      6.3073000033      2.2229246141      3.0666762416
 O      2.5132118244      4.3392865786      3.0641307793
 H      5.4961058003     -0.8133550173      7.0022886222
 H      1.7219055195      7.3755154925      6.9767603142
 H     -3.4582117408      4.3500423777      6.9762957556
 H      5.5562835510      5.1707000239      6.9515501850
 H      2.0689156611     -0.7708996945      3.4169428213
 H     -1.7162152617      7.4025039419      3.3924970737
 H     -1.7320674194      1.4123329900      3.3936973531
 H      7.2463086103      2.2332625462      3.4268033345
60
# ORCA AIMD Position Step 4, t=2.00 fs, E_Pot=-1525.76464160 Hartree, Unit is Angstrom
 H      2.5653011586     -0.0029767177      1.4020775883
 H     -1.2917664952      6.6798087948      1.4743128355
 H     -1.2071208378      2.1803462015      1.3925510134
 H      6.4071479491      2.1234087236      1.4262667248
 H      2.4959591481      4.4403860679      1.3676259544
 H      5.0433511018      0.0386975012      4.9453823464
 H      1.3051819772      6.5516189277      4.9456220407
 H     -2.5009595187      4.3711010251      4.9582607082
 H      5.0054835320      4.4218490384      4.9627254754
 H      1.2770058362      2.0911235862      4.9500411824
 H      3.4442080154     -0.0163846295      0.0452628557
 H     -0.3695726962      6.5475021524      0.1037494424
 H     -1.6511128768      2.9447965259      0.0950597641
 H      5.8350093140      2.9493303598      0.0701484518
 H      2.0912754485      3.6055143594      0.1272900689
 H      4.1927596105     -0.0320625271      3.6428159099
 H      0.3814596727      6.5695544829      3.6570960634
 H     -2.0979564343      3.6422480224      3.5832257300
 H      5.5155104820      3.6785764399      3.7025224954
 H      1.7479220045      2.9746957282      3.6294622019
 H      1.6423850609      5.7551541996      6.9641340105
 H     -2.1047142417      5.1581572730      6.9935113541
 H      0.3756368588      2.2441459697      6.9797854989
 H      5.5289510475      0.8097758583      7.0215475194
 H      1.7381596580      1.3922753325      6.9684672770
 H      4.1761547595      4.4628485306      7.0062647200
 H      2.0713673965      0.7878467372      3.4151233796
 H      5.8542534460      1.3893342797      3.4456428954
 H      3.4166394567      4.3874171306      3.4250162530
 H     -1.6986148471      5.8245043552      3.4567292214
 H      2.0193564543      5.1808979959      3.4281977499
 H     -0.3348911571      2.2511836310      3.3902325140
 O      2.4951667332      0.0062423912      0.3799929075
 O     -1.3194042240      6.6028444418      0.4095625954
 O     -1.2349730702      2.1444116245      0.4094497197
 O      6.3536763179      2.1446833783      0.4098580511
 O      2.5513238663      4.4254572803      0.3775819989
 O      5.1124959772     -0.0094084342      3.9626403687
 O      1.3346623415      6.5772843819      3.9677397821
 O     -2.5505885483      4.4323285091      3.9755490991
 O      5.0255424467      4.4282231222      3.9797186467
 O      1.2385625111      2.1402618942      3.9685233818
 O      5.0136034837     -0.0052196572      6.6425616432
 O      1.2015905150      6.5908976148      6.6429074554
 O     -2.5067811823      4.3533406610      6.6426849456
 O      5.0826613141      4.3506357376      6.6407864162
 O      1.2971987448      2.2253126723      6.6362612306
 O      2.5797584109     -0.0195798022      3.0739585048
 O     -1.2077610106      6.5735482730      3.0644016672
 O     -1.2865328420      2.2202119067      3.0655717328
 O      6.3057458256      2.2190410132      3.0663886934
 O      2.5132903174      4.3356963594      3.0629034909
 H      5.4883284385     -0.8093573750      7.0035628962
 H      1.7238835468      7.3649520831      6.9703209923
 H     -3.4525740395      4.3442988333      6.9690508116
 H      5.5569533168      5.1647245033      6.9365920628
 H      2.0622472790     -0.7578765796      3.4144732942
 H     -1.7139297864      7.3986392086      3.3800563956
 H     -1.7255669000      1.4161191336      3.3836293089
 H      7.2364199523      2.2385547199      3.4263708020
60
# ORCA AIMD Position Step 5, t=2.50 fs, E_Pot=-1525.76641701 Hartree, Unit is Angstrom
 H      2.5790954037     -0.0034420203      1.3906782691
 H     -1.2909021881      6.7014522014      1.4755848918
 H     -1.1956450823      2.1829116874      1.3855409171
 H      6.4193268462      2.1133322316      1.4229324696
 H      2.4839909127      4.4476170428      1.3556734665
 H      5.0317232452      0.0477691931      4.9358356996
 H      1.3085208154      6.5437502449      4.9367081167
 H     -2.4896456289      4.3607252506      4.9514141306
 H      4.9931416633      4.4244307965      4.9564054486
 H      1.2825267561      2.0719570526      4.9439795944
 H      3.4370832757     -0.0195073251      0.0427619701
 H     -0.3783063056      6.5378891168      0.1155918378
 H     -1.6340957420      2.9383581773      0.1017382287
 H      5.8275461256      2.9332601829      0.0764292166
 H      2.0944151320      3.6067522350      0.1421187231
 H      4.1970858887     -0.0401034894      3.6402067302
 H      0.3886533285      6.5661172862      3.6602979569
 H     -2.1022364454      3.6511007219      3.5682654102
 H      5.5197611764      3.6868286867      3.7124197371
 H      1.7560843695      2.9754681496      3.6250874683
 H      1.6231528097      5.7568622471      6.9554143728
 H     -2.1178651647      5.1537860020      6.9941450954
 H      0.3869384492      2.2498831661      6.9759196194
 H      5.5273529139      0.7988848364      7.0242941233
 H      1.7318727867      1.3942207698      6.9610795906
 H      4.1871040607      4.4859319110      7.0083104314
 H      2.0661410371      0.7843231432      3.4126017304
 H      5.8528275581      1.3822371436      3.4519264357
 H      3.4146779320      4.3922486782      3.4272624466
 H     -1.7013583080      5.8275186281      3.4681211633
 H      2.0122701326      5.1796974634      3.4279205678
 H     -0.3306943839      2.2580816102      3.3834982757
 O      2.4985080798      0.0077644099      0.3758041717
 O     -1.3194031873      6.6073832494      0.4130634008
 O     -1.2331764170      2.1425808226      0.4123676602
 O      6.3514857279      2.1434442943      0.4128320771
 O      2.5491167588      4.4232896818      0.3725205952
 O      5.1109763064     -0.0116382974      3.9611402442
 O      1.3387781858      6.5752977559      3.9673059592
 O     -2.5482425117      4.4321572623      3.9771329775
 O      5.0205478157      4.4275154304      3.9826648568
 O      1.2377028735      2.1374836664      3.9681979819
 O      5.0117708846     -0.0061835950      6.6438199277
 O      1.1969280009      6.5922480010      6.6440184900
 O     -2.5059659394      4.3540725572      6.6436685123
 O      5.0802060553      4.3510026074      6.6413949705
 O      1.2989759049      2.2226680507      6.6356222896
 O      2.5794815816     -0.0244542411      3.0756227334
 O     -1.2045056727      6.5717488563      3.0637007467
 O     -1.2857329938      2.2165745769      3.0650470934
 O      6.3043402673      2.2151849333      3.0662468933
 O      2.5130311402      4.3321427387      3.0617808212
 H      5.4796837978     -0.8029007617      7.0039398713
 H      1.7255038388      7.3526045262      6.9636120630
 H     -3.4442478933      4.3390418180      6.9610225835
 H      5.5570322247      5.1577725214      6.9212129269
 H      2.0549221749     -0.7462719325      3.4120352743
 H     -1.7095630079      7.3913235756      3.3662497845
 H     -1.7185767497      1.4193753219      3.3737310225
 H      7.2241313331      2.2432600891      3.4250180502
60
# ORCA AIMD Position Step 6, t=3.00 fs, E_Pot=-1525.76825795 Hartree, Unit is Angstrom
 H      2.5931123253     -0.0038086053      1.3753771762
 H     -1.2892405579      6.7217848389      1.4696295230
 H     -1.1845995774      2.1862484857      1.3785486428
 H      6.4298997824      2.1050134224      1.4163875727
 H      2.4722904808      4.4545985241      1.3435940001
 H      5.0200465396      0.0565521199      4.9267678709
 H      1.3113130549      6.5360880486      4.9289942118
 H     -2.4780518743      4.3495955118      4.9448118128
 H      4.9812796411      4.4264802490      4.9504836483
 H      1.2883570284      2.0541226186      4.9389205385
 H      3.4279652275     -0.0222418925      0.0416819346
 H     -0.3883315418      6.5282075806      0.1288139545
 H     -1.6185228210      2.9354654279      0.1080126572
 H      5.8215238755      2.9146674292      0.0857147310
 H      2.0967747374      3.6065173256      0.1567486130
 H      4.1989640429     -0.0481636393      3.6363910955
 H      0.3962248883      6.5628965205      3.6635329498
 H     -2.1062865315      3.6592054752      3.5536269490
 H      5.5275519139      3.6891970515      3.7199774870
 H      1.7642521740      2.9761996798      3.6213147733
 H      1.6037751807      5.7603885678      6.9465507371
 H     -2.1304010697      5.1516614494      6.9957520021
 H      0.3981401354      2.2549042629      6.9723769463
 H      5.5234962427      0.7837489121      7.0252266610
 H      1.7242825834      1.3973779113      6.9536601983
 H      4.1979135208      4.5088655077      7.0103089080
 H      2.0612374610      0.7812342072      3.4093337852
 H      5.8516718220      1.3748241349      3.4578052122
 H      3.4161743147      4.3972244552      3.4300002663
 H     -1.7062086004      5.8270795366      3.4801717884
 H      2.0066439699      5.1769114299      3.4264722884
 H     -0.3264252119      2.2637581224      3.3772267713
 O      2.5019670529      0.0092719295      0.3717105847
 O     -1.3193619144      6.6119607957      0.4168316277
 O     -1.2312633983      2.1404966002      0.4152267363
 O      6.3492724720      2.1422531048      0.4157443864
 O      2.5469486585      4.4212183629      0.3674290227
 O      5.1096679317     -0.0138186471      3.9596433819
 O      1.3429199488      6.5732725731      3.9667326746
 O     -2.5459209492      4.4321321521      3.9786300376
 O      5.0152842865      4.4272217233      3.9856631577
 O      1.2368540603      2.1347021130      3.9676944677
 O      5.0100969453     -0.0069585926      6.6452837990
 O      1.1922575994      6.5935253516      6.6451958463
 O     -2.5052795657      4.3546357288      6.6446830010
 O      5.0777528402      4.3513754172      6.6420960981
 O      1.3008500362      2.2199918327      6.6350167453
 O      2.5792389076     -0.0291714683      3.0773555729
 O     -1.2012747272      6.5703128457      3.0631185248
 O     -1.2849053112      2.2131100453      3.0645339356
 O      6.3030121853      2.2113381465      3.0662388725
 O      2.5124210752      4.3286408450      3.0607692101
 H      5.4705666865     -0.7948165777      7.0036970809
 H      1.7273001093      7.3392885029      6.9569821596
 H     -3.4341900830      4.3341997449      6.9525038391
 H      5.5571960149      5.1506740760      6.9056639012
 H      2.0462705290     -0.7372195923      3.4100352625
 H     -1.7034510854      7.3812837761      3.3513837807
 H     -1.7116601159      1.4209073041      3.3644888939
 H      7.2104536609      2.2473692182      3.4231423092
60
# ORCA AIMD Position Step 7, t=3.50 fs, E_Pot=-1525.76926249 Hartree, Unit is Angstrom
 H      2.6071990702     -0.0040876244      1.3570926411
 H     -1.2868659310      6.7406561779      1.4568962748
 H     -1.1739116596      2.1903166107      1.3726537719
 H      6.4387920819      2.0984907402      1.4073117462
 H      2.4609551696      4.4615037261      1.3320620827
 H      5.0083474042      0.0650554206      4.9188593872
 H      1.3135705548      6.5286277944      4.9233215128
 H     -2.4661262395      4.3376448616      4.9391733711
 H      4.9698688887      4.4279896985      4.9459783230
 H      1.2945040973      2.0377046061      4.9351696731
 H      3.4180774565     -0.0246213291      0.0414242696
 H     -0.3985048247      6.5183959943      0.1429592271
 H     -1.6048041031      2.9370497376      0.1134449568
 H      5.8163079487      2.8946001328      0.0976298747
 H      2.0978659202      3.6038710951      0.1707577993
 H      4.1981507632     -0.0562486843      3.6312022282
 H      0.4037426529      6.5599192163      3.6666061137
 H     -2.1099846656      3.6663246730      3.5392527603
 H      5.5385934883      3.6861024654      3.7253274139
 H      1.7722249205      2.9765872461      3.6183596150
 H      1.5847800681      5.7646817845      6.9379403869
 H     -2.1418738854      5.1525989873      6.9986598815
 H      0.4081790216      2.2592601917      6.9695303967
 H      5.5178030779      0.7652794508      7.0246654288
 H      1.7159358624      1.4007622503      6.9466332562
 H      4.2075948370      4.5316498563      7.0125957352
 H      2.0568400108      0.7785727536      3.4052244137
 H      5.8509124173      1.3674129773      3.4630818079
 H      3.4207674397      4.4022623583      3.4330346192
 H     -1.7126733149      5.8237699452      3.4924396920
 H      2.0025763522      5.1723993355      3.4238157104
 H     -0.3222952723      2.2680892140      3.3714609393
 O      2.5054749761      0.0107676418      0.3676964388
 O     -1.3193469736      6.6165874273      0.4208656491
 O     -1.2292138187      2.1381018465      0.4179866229
 O      6.3470799216      2.1410417719      0.4185757484
 O      2.5448455420      4.4192907646      0.3622933670
 O      5.1085848482     -0.0159502632      3.9581216850
 O      1.3471105100      6.5712094604      3.9659802808
 O     -2.5436340085      4.4322714714      3.9800019857
 O      5.0097710829      4.4273137305      3.9886402852
 O      1.2360294311      2.1319380911      3.9669772474
 O      5.0085238308     -0.0075347055      6.6469081325
 O      1.1875081954      6.5947372824      6.6463895162
 O     -2.5046724313      4.3549846144      6.6456827387
 O      5.0753184167      4.3516999552      6.6428540091
 O      1.3028543435      2.2173409358      6.6343952750
 O      2.5790529974     -0.0336784887      3.0791396981
 O     -1.1980625228      6.5691382614      3.0626588400
 O     -1.2840054687      2.2098965697      3.0640046730
 O      6.3016763703      2.2074822840      3.0663464639
 O      2.5114749685      4.3251988311      3.0598799893
 H      5.4614665063     -0.7861624085      7.0031965779
 H      1.7298858300      7.3259164189      6.9507994545
 H     -3.4236394608      4.3296741149      6.9438631085
 H      5.5581715681      5.1443078297      6.8901822900
 H      2.0357841452     -0.7315472588      3.4087611104
 H     -1.6961443322      7.3695749786      3.3358653665
 H     -1.7053246176      1.4196299630      3.3563213830
 H      7.1966381213      2.2509052565      3.4212335190
60
# ORCA AIMD Position Step 8, t=4.00 fs, E_Pot=-1525.76880056 Hartree, Unit is Angstrom
 H      2.6212278378     -0.0042954867      1.3371053815
 H     -1.2838819405      6.7580099459      1.4383274161
 H     -1.1634925953      2.1950801543      1.3688494939
 H      6.4460034831      2.0937377283      1.3966455335
 H      2.4500649392      4.4685134990      1.3217113932
 H      4.9966375940      0.0732954275      4.9126445907
 H      1.3153114750      6.5213645634      4.9202714025
 H     -2.4538150392      4.3248194115      4.9350897068
 H      4.9588716441      4.4289452278      4.9437950667
 H      1.3009628128      2.0227738750      4.9328549903
 H      3.4088639747     -0.0266992078      0.0412727792
 H     -0.4075953352      6.5083379225      0.1575303638
 H     -1.5930198095      2.9434049357      0.1178468908
 H      5.8110236981      2.8743859163      0.1116346527
 H      2.0973879217      3.5981960172      0.1838522220
 H      4.1947467618     -0.0643518745      3.6246127304
 H      0.4107576314      6.5572102239      3.6693198236
 H     -2.1132635566      3.6723246938      3.5251206101
 H      5.5520238572      3.6787227307      3.7288778175
 H      1.7798269623      2.9763919928      3.6163902798
 H      1.5667181504      5.7685447089      6.9299976789
 H     -2.1520487369      5.1569978660      7.0030114567
 H      0.4161016784      2.2630288813      6.9677043480
 H      5.5109512341      0.7448000160      7.0231215209
 H      1.7074448031      1.4032539219      6.9404562249
 H      4.2153193461      4.5543112489      7.0154582003
 H      2.0531016858      0.7763359921      3.4002112432
 H      5.8506361528      1.3602674008      3.4675855513
 H      3.4278251237      4.4072516983      3.4360652028
 H     -1.7201305178      5.8183598772      3.5043846664
 H      2.0000861311      5.1661408249      3.4199727993
 H     -0.3184939163      2.2709705351      3.3662407794
 O      2.5089476896      0.0122558222      0.3637307933
 O     -1.3194293264      6.6212717846      0.4251367279
 O     -1.2270291700      2.1353793057      0.4205963998
 O      6.3449622965      2.1397285716      0.4213008322
 O      2.5428224673      4.4175336389      0.3570944802
 O      5.1077202613     -0.0180346983      3.9565470677
 O      1.3513731021      6.5691098864      3.9650252736
 O     -2.5413884168      4.4325866327      3.9812161296
 O      5.0040629923      4.4277155628      3.9915117606
 O      1.2352412111      2.1292088118      3.9660246777
 O      5.0069746972     -0.0079189831      6.6486329643
 O      1.1826065637      6.5959019592      6.6475506038
 O     -2.5040701575      4.3551009316      6.6466310383
 O      5.0729118879      4.3519251412      6.6436394640
 O      1.3050109772      2.2147792807      6.6337094944
 O      2.5789300247     -0.0379515802      3.0809677557
 O     -1.1948588104      6.5680921711      3.0623261450
 O     -1.2830009915      2.2069916249      3.0634410599
 O      6.3002419324      2.2036008912      3.0665472266
 O      2.5102312324      4.3218183639      3.0591276625
 H      5.4529209514     -0.7781403008      7.0028498127
 H      1.7338839451      7.3133808746      6.9454065652
 H     -3.4140138159      4.3253467987      6.9355095762
 H      5.5606492435      5.1394757826      6.8749520538
 H      2.0232494970     -0.7296223280      3.4083099688
 H     -1.6883903615      7.3575389652      3.3201750178
 H     -1.6999112588      1.4147742589      3.3495042897
 H      7.1840550702      2.2539201529      3.4198289991
60
# ORCA AIMD Position Step 9, t=4.50 fs, E_Pot=-1525.76682957 Hartree, Unit is Angstrom
 H      2.6351125817     -0.0044552408      1.3170059971
 H     -1.2804035794      6.7739199456      1.4154544319
 H     -1.1532557508      2.2005047435      1.3678762133
 H      6.4516123378      2.0906662428      1.3855655179
 H      2.4396859325      4.4757973479      1.3130472744
 H      4.9849253707      0.0812827581      4.9084301429
 H      1.3165608472      6.5143027058      4.9200628899
 H     -2.4410753992      4.3110931243      4.9329233975
 H      4.9482523949      4.4293231754      4.9445711605
 H      1.3077103876      2.0093972286      4.9319138691
 H      3.4018304138     -0.0285444038      0.0404590031
 H     -0.4144523774      6.4978743391      0.1720434090
 H     -1.5829123274      2.9540987682      0.1213124444
 H      5.8046073946      2.8555282057      0.1270788120
 H      2.0952961773      3.5893335686      0.1958858501
 H      4.1891777573     -0.0724476076      3.6167370865
 H      0.4168573372      6.5547921071      3.6714943950
 H     -2.1161160434      3.6771862457      3.5112583294
 H      5.5666203581      3.6686453954      3.7311809828
 H      1.7869087324      2.9754400666      3.6155253564
 H      1.5500948628      5.7707854905      6.9231037962
 H     -2.1609375798      5.1647471227      7.0087232279
 H      0.4212218786      2.2662966111      6.9671189147
 H      5.5038768468      0.7240197742      7.0212981309
 H      1.6994052200      1.4037367496      6.9355685026
 H      4.2205532661      4.5768718711      7.0190799447
 H      2.0501380623      0.7745261379      3.3942676166
 H      5.8508848327      1.3535794481      3.4711846477
 H      3.4365579522      4.4120576740      3.4387340655
 H     -1.7279218522      5.8116761342      3.5154451799
 H      1.9991098475      5.1582376466      3.4150247962
 H     -0.3151671931      2.2723212651      3.3616090256
 O      2.5122945655      0.0137421085      0.3597664516
 O     -1.3196742804      6.6260177973      0.4295794571
 O     -1.2247320087      2.1323573284      0.4230028381
 O      6.3429811402      2.1382244253      0.4238863400
 O      2.5408790322      4.4159454830      0.3518120975
 O      5.1070471736     -0.0200739968      3.9548964539
 O      1.3557281471      6.5669754768      3.9638654501
 O     -2.5391864928      4.4330806341      3.9822506828
 O      4.9982363392      4.4283257198      3.9941999447
 O      1.2345006402      2.1265268935      3.9648301498
 O      5.0053579285     -0.0081422847      6.6503870356
 O      1.1774877526      6.5970475019      6.6486378483
 O     -2.5033825605      4.3549987243      6.6475063871
 O      5.0705327742      4.3520138903      6.6444355297
 O      1.3073262826      2.2123702086      6.6329186440
 O      2.5788552759     -0.0420001015      3.0828441363
 O     -1.1916465499      6.5670255068      3.0621235530
 O     -1.2818780291      2.2044205854      3.0628373651
 O      6.2986244101      2.1996813899      3.0668182535
 O      2.5087448511      4.3184945868      3.0585270118
 H      5.4454448360     -0.7719615783      7.0030607264
 H      1.7398292031      7.3024125882      6.9410677003
 H     -3.4067334865      4.3210934121      6.9278377738
 H      5.5651780837      5.1367610143      6.8600690791
 H      2.0088228361     -0.7312924128      3.4085595656
 H     -1.6810772335      7.3467001932      3.3048204407
 H     -1.6955068256      1.4060616247      3.3441155609
 H      7.1740081113      2.2564830919      3.4194415827
60
# ORCA AIMD Position Step 10, t=5.00 fs, E_Pot=-1525.76401070 Hartree, Unit is Angstrom
 H      2.6488201990     -0.0045967988      1.2985607925
 H     -1.2765421268      6.7886305489      1.3904919824
 H     -1.1431363954      2.2065470372      1.3700774949
 H      6.4557700339      2.0891370793      1.3754129327
 H      2.4298768699      4.4834942294      1.3063690256
 H      4.9732282222      0.0890103612      4.9062484474
 H      1.3173508719      6.5074631222      4.9225150251
 H     -2.4278885423      4.2964841431      4.9327416713
 H      4.9379877451      4.4290905557      4.9485515327
 H      1.3147037622      1.9976417986      4.9321118938
 H      3.3983067109     -0.0302294461      0.0382633389
 H     -0.4182073936      6.4868316745      0.1860909789
 H     -1.5739666326      2.9680753554      0.1241702529
 H      5.7959339742      2.8395075014      0.1433011480
 H      2.0918151829      3.5776236071      0.2068484262
 H      4.1821173787     -0.0804898233      3.6078100696
 H      0.4217192880      6.5526849527      3.6729877207
 H     -2.1185922859      3.6809996489      3.4977485736
 H      5.5810547527      3.6575090012      3.7328015971
 H      1.7933473629      2.9736201116      3.6158334044
 H      1.5352904367      5.7704156287      6.9175474021
 H     -2.1687759324      5.1752477849      7.0154958272
 H      0.4232494455      2.2691365048      6.9678449715
 H      5.4977218710      0.7049150722      7.0200512769
 H      1.6922966303      1.4012839021      6.9323254811
 H      4.2231479917      4.5993162475      7.0235007288
 H      2.0480239163      0.7731499175      3.3874020517
 H      5.8516554420      1.3474614016      3.4737937706
 H      3.4461330179      4.4165313741      3.4406755435
 H     -1.7354272484      5.8045050166      3.5251033040
 H      1.9994991626      5.1489165776      3.4091119955
 H     -0.3124055159      2.2720882792      3.3576133057
 O      2.5154328232      0.0152328077      0.3557417862
 O     -1.3201296889      6.6308202608      0.4340816317
 O     -1.2223596606      2.1291040839      0.4251623739
 O      6.3411975157      2.1364447484      0.4262892322
 O      2.5389981857      4.4144951971      0.3464303837
 O      5.1065224843     -0.0220702427      3.9531561588
 O      1.3601900843      6.5648074373      3.9625210879
 O     -2.5370256124      4.4337473013      3.9830986622
 O      4.9923724852      4.4290396371      3.9966501833
 O      1.2338181105      2.1239000147      3.9634010597
 O      5.0035760409     -0.0082632701      6.6520949347
 O      1.1721067664      6.5982080658      6.6496244032
 O     -2.5025200425      4.3547218271      6.6483063169
 O      5.0681713873      4.3519529746      6.6452413539
 O      1.3097890241      2.2101661327      6.6319964758
 O      2.5787943083     -0.0458627082      3.0847834289
 O     -1.1884043984      6.5657913360      3.0620532775
 O     -1.2806438538      2.2021717667      3.0622011210
 O      6.2967601306      2.1957168500      3.0671413671
 O      2.5070801944      4.3152156247      3.0580900714
 H      5.4394398670     -0.7686646167      7.0041512169
 H      1.7480618732      7.2934441572      6.9379196383
 H     -3.4029840167      4.3168008502      6.9211568300
 H      5.5720690988      5.1364054777      6.8455219305
 H      1.9930129184     -0.7359453927      3.4091964421
 H     -1.6751200742      7.3385773815      3.2902675264
 H     -1.6919160211      1.3937772836      3.3400215727
 H      7.1675073316      2.2586615325      3.4204695709
60
# ORCA AIMD Position Step 11, t=5.50 fs, E_Pot=-1525.76146090 Hartree, Unit is Angstrom
 H      2.6623653630     -0.0047545880      1.2834784938
 H     -1.2723797813      6.8025830885      1.3663462985
 H     -1.1331102978      2.2131377267      1.3753232869
 H      6.4586793999      2.0889794006      1.3675636149
 H      2.4206991196      4.4916938320      1.3017182102
 H      4.9615866315      0.0964423855      4.9058534772
 H      1.3177223944      6.5008882708      4.9270843205
 H     -2.4142744897      4.2810715394      4.9342986550
 H      4.9280752263      4.4282081965      4.9555280584
 H      1.3218780488      1.9875767314      4.9330799973
 H      3.3991770198     -0.0318125291      0.0341353720
 H     -0.4184509082      6.4750679908      0.1993942757
 H     -1.5655448192      2.9838968332      0.1268784470
 H      5.7840325528      2.8275014189      0.1597614467
 H      2.0873883435      3.5638307131      0.2168226923
 H      4.1743790631     -0.0884141903      3.5981488058
 H      0.4251640118      6.5509077473      3.6737126669
 H     -2.1207898922      3.6839468000      3.4847261569
 H      5.5940937161      3.6467544058      3.7342250430
 H      1.7990398614      2.9708706006      3.6173375048
 H      1.5224924009      5.7668483089      6.9134724440
 H     -2.1759480932      5.1875448694      7.0228727647
 H      0.4223404722      2.2715900477      6.9697863865
 H      5.4936884697      0.6894711552      7.0202802075
 H      1.6863900369      1.3953504191      6.9309328755
 H      4.2233534306      4.6215613895      7.0286044364
 H      2.0467937255      0.7722166685      3.3796559574
 H      5.8529033355      1.3419434986      3.4753769694
 H      3.4557713721      4.4205219754      3.4415605675
 H     -1.7421166862      5.7975259231      3.5329274945
 H      2.0010199425      5.1385348963      3.4024343589
 H     -0.3102366994      2.2702483581      3.3543071132
 O      2.5183049206      0.0167336477      0.3515876749
 O     -1.3208163591      6.6356601212      0.4384801644
 O     -1.2199545913      2.1257133827      0.4270525194
 O      6.3396596744      2.1343258868      0.4284565779
 O      2.5371487655      4.4131278592      0.3409437650
 O      5.1060929982     -0.0240248793      3.9513245618
 O      1.3647642815      6.5626059448      3.9610315347
 O     -2.5348980284      4.4345713462      3.9837691359
 O      4.9865448423      4.4297652865      3.9988404607
 O      1.2332035362      2.1213312484      3.9617562695
 O      5.0015400444     -0.0083638219      6.6536886198
 O      1.1664481270      6.5994164880      6.6505027659
 O     -2.5014138927      4.3543342036      6.6490480386
 O      5.0658117310      4.3517585977      6.6460723859
 O      1.3123730591      2.2081975937      6.6309365156
 O      2.5786989200     -0.0495976291      3.0868061690
 O     -1.1851145242      6.5642666660      3.0621191064
 O     -1.2793241496      2.2002000770      3.0615507178
 O      6.2946196998      2.1917076164      3.0675083552
 O      2.5053048415      4.3119621220      3.0578234032
 H      5.4351105968     -0.7689288604      7.0062878809
 H      1.7586428884      7.2865280402      6.9359447145
 H     -3.4034676368      4.3123884354      6.9156229629
 H      5.5813354563      5.1382511453      6.8312008842
 H      1.9765828309     -0.7426623518      3.4097882799
 H     -1.6712891319      7.3344079103      3.2768617733
 H     -1.6887096890      1.3787084156      3.3369143892
 H      7.1650544636      2.2604953093      3.4231097120
60
# ORCA AIMD Position Step 12, t=6.00 fs, E_Pot=-1525.76020953 Hartree, Unit is Angstrom
 H      2.6757835639     -0.0049619369      1.2730986481
 H     -1.2679439754      6.8163997966      1.3463941572
 H     -1.1232011087      2.2201658590      1.3830337346
 H      6.4605580844      2.0900158193      1.3632286862
 H      2.4122236083      4.5004257491      1.2988737202
 H      4.9500708698      0.1035116828      4.9067692391
 H      1.3177248663      6.4946397692      4.9329705482
 H     -2.4002990387      4.2650032052      4.9370783589
 H      4.9185337784      4.4266368673      4.9648820358
 H      1.3291493361      1.9792670613      4.9343773310
 H      3.4046662949     -0.0333195739      0.0277956984
 H     -0.4153227097      6.4625171887      0.2118309057
 H     -1.5570138326      3.0000158689      0.1299127941
 H      5.7683357361      2.8200985094      0.1761600958
 H      2.0825873097      3.5489875869      0.2259352085
 H      4.1668070083     -0.0961441701      3.5881098622
 H      0.4271845629      6.5494780226      3.6736454496
 H     -2.1228393377      3.6862746695      3.4723650851
 H      5.6047075125      3.6375158924      3.7358206528
 H      1.8039038655      2.9671768858      3.6200164509
 H      1.5116595094      5.7600296085      6.9108502334
 H     -2.1828973357      5.2005110617      7.0303224078
 H      0.4190575345      2.2736595081      6.9726951013
 H      5.4927917243      0.6792919636      7.0227418755
 H      1.6816968842      1.3859066776      6.9314027193
 H      4.2217526643      4.6434472193      7.0341404776
 H      2.0464473136      0.7717331103      3.3710976321
 H      5.8545507024      1.3369822043      3.4759452392
 H      3.4647987325      4.4238877551      3.4411210570
 H     -1.7475732518      5.7912850836      3.5385924274
 H      2.0033586071      5.1275736060      3.3952463940
 H     -0.3086331787      2.2668105199      3.3517453285
 O      2.5208937293      0.0182483236      0.3472405580
 O     -1.3217239286      6.6405024101      0.4425726999
 O     -1.2175559081      2.1222884961      0.4286774396
 O      6.3383895106      2.1318415780      0.4303304745
 O      2.5352908235      4.4117752427      0.3353603126
 O      5.1057018947     -0.0259383691      3.9494118877
 O      1.3694453074      6.5603701931      3.9594481663
 O     -2.5327914301      4.4355294661      3.9842853346
 O      4.9808124559      4.4304298809      4.0007814022
 O      1.2326661931      2.1188196400      3.9599222734
 O      4.9991882149     -0.0085329566      6.6551220023
 O      1.1605301074      6.6006960599      6.6512861697
 O     -2.5000324566      4.3539074404      6.6497657579
 O      5.0634356154      4.3514753436      6.6469569554
 O      1.3150430714      2.2064653333      6.6297537607
 O      2.5785155777     -0.0532708549      3.0889339124
 O     -1.1817727136      6.5623722879      3.0623297087
 O     -1.2779561711      2.1984374884      3.0609112608
 O      6.2922147767      2.1876618813      3.0679240785
 O      2.5034854864      4.3087072031      3.0577268839
 H      5.4324126560     -0.7729394624      7.0094342735
 H      1.7713226935      7.2813358120      6.9349739332
 H     -3.4082362039      4.3078227191      6.9112002278
 H      5.5926922980      5.1417663810      6.8169290377
 H      1.9604095037     -0.7504016483      3.4098701669
 H     -1.6700282701      7.3348664541      3.2647640691
 H     -1.6853270390      1.3619748451      3.3343807612
 H      7.1665304316      2.2619766026      3.4273088856
60
# ORCA AIMD Position Step 13, t=6.50 fs, E_Pot=-1525.76064591 Hartree, Unit is Angstrom
 H      2.6890861117     -0.0052437748      1.2680924165
 H     -1.2632031081      6.8307880926      1.3339116573
 H     -1.1134750076      2.2274724898      1.3923014838
 H      6.4615956924      2.0920866445      1.3632220290
 H      2.4045323005      4.5096599596      1.2973889759
 H      4.9387784275      0.1101264066      4.9083755056
 H      1.3174139647      6.4887901329      4.9392497132
 H     -2.3860699764      4.2484906237      4.9403828758
 H      4.9093970944      4.4243442981      4.9757049602
 H      1.3364195558      1.9727645102      4.9355440767
 H      3.4142764548     -0.0347337520      0.0192811310
 H     -0.4094840087      6.4492161214      0.2234357386
 H     -1.5478327739      3.0149971077      0.1336833788
 H      5.7488627327      2.8171288925      0.1924905885
 H      2.0780151525      3.5342160619      0.2343183311
 H      4.1601894720     -0.1035998858      3.5780514560
 H      0.4279480562      6.5484116062      3.6728244055
 H     -2.1248875520      3.6882623318      3.4608568663
 H      5.6121031918      3.6306164069      3.7378458366
 H      1.8078764513      2.9625619657      3.6238098857
 H      1.5025332237      5.7504490315      6.9094885622
 H     -2.1900498052      5.2130215679      7.0373163046
 H      0.4142541934      2.2753122790      6.9762137395
 H      5.4955760865      0.6751931088      7.0278395152
 H      1.6779817289      1.3734539419      6.9335499083
 H      4.2191401815      4.6647518520      7.0397714374
 H      2.0469522342      0.7717061494      3.3618171674
 H      5.8564942102      1.3324683976      3.4755523137
 H      3.4726688409      4.4265053987      3.4391619492
 H     -1.7514970155      5.7861950760      3.5418832184
 H      2.0061288524      5.1166299499      3.3878500553
 H     -0.3075201555      2.2618167557      3.3499800799
 O      2.5232293850      0.0197773629      0.3426583084
 O     -1.3228128201      6.6453002036      0.4461527239
 O     -1.2151942423      2.1189286122      0.4300656299
 O      6.3373736337      2.1290121292      0.4318592007
 O      2.5333817090      4.4103670439      0.3297017801
 O      5.1052943707     -0.0278102441      3.9474374061
 O      1.3742170194      6.5580986520      3.9578262234
 O     -2.5306902582      4.4365925652      3.9846804422
 O      4.9752187462      4.4309800761      4.0025088914
 O      1.2322146121      2.1163611493      3.9579295709
 O      4.9965038202     -0.0088434081      6.6563842481
 O      1.1544017660      6.6020547945      6.6520057727
 O     -2.4983868111      4.3535095565      6.6505052505
 O      5.0610266677      4.3511687682      6.6479305395
 O      1.3177610562      2.2049390801      6.6284822431
 O      2.5781935392     -0.0569463074      3.0911851589
 O     -1.1783956675      6.5600844038      3.0627003747
 O     -1.2765813605      2.1968056308      3.0603101789
 O      6.2895953738      2.1835952345      3.0684058605
 O      2.5016856489      4.3054168628      3.0577933386
 H      5.4310550284     -0.7803510547      7.0133481542
 H      1.7855773220      7.2772388741      6.9347198495
 H     -3.4166778833      4.3031207175      6.9076677486
 H      5.6056146203      5.1461483589      6.8025034777
 H      1.9453494349     -0.7581558926      3.4090168920
 H     -1.6713367326      7.3398897594      3.2539308315
 H     -1.6811846620      1.3448277892      3.3319746669
 H      7.1712328851      2.2630438738      3.4327765746
60
# ORCA AIMD Position Step 14, t=7.00 fs, E_Pot=-1525.76221607 Hartree, Unit is Angstrom
 H      2.7022146319     -0.0056096330      1.2682987509
 H     -1.2580960373      6.8463350840      1.3311791889
 H     -1.1040272234      2.2348531820      1.4020511737
 H      6.4619132329      2.0950627839      1.3677748913
 H      2.3977161539      4.5193120247      1.2966665506
 H      4.9278280953      0.1161787810      4.9099978589
 H      1.3168505394      6.4834144033      4.9450088092
 H     -2.3717302087      4.2317971839      4.9434388029
 H      4.9007058093      4.4213087728      4.9869553346
 H      1.3435836065      1.9680974458      4.9361666234
 H      3.4269123300     -0.0359965163      0.0089104138
 H     -0.4019628128      6.4353091285      0.2343599552
 H     -1.5375990500      3.0276544312      0.1384834579
 H      5.7262442780      2.8177116962      0.2089866927
 H      2.0742232767      3.5205702010      0.2420811089
 H      4.1551954409     -0.1107053400      3.5683005297
 H      0.4277754989      6.5477214975      3.6713403128
 H     -2.1270801879      3.6901880013      3.4503884298
 H      5.6157229425      3.6265981371      3.7404581613
 H      1.8109180462      2.9570897265      3.6286183170
 H      1.4946979203      5.7390213789      6.9090759784
 H     -2.1977565605      5.2240910632      7.0433901035
 H      0.4089175141      2.2764949412      6.9799330698
 H      5.5019267458      0.6769670023      7.0354824471
 H      1.6748324641      1.3589221918      6.9370302132
 H      4.2163856577      4.6852173223      7.0451280184
 H      2.0482561727      0.7721305701      3.3519165609
 H      5.8586164883      1.3282450175      3.4742841904
 H      3.4789633607      4.4282759113      3.4355611722
 H     -1.7537028545      5.7825352718      3.5426896959
 H      2.0089045170      5.1063720216      3.3805736353
 H     -0.3067968082      2.2553415162      3.3490523986
 O      2.5253841810      0.0213177544      0.3378328374
 O     -1.3240220721      6.6500070479      0.4490677827
 O     -1.2128896790      2.1157200554      0.4312632412
 O      6.3365642979      2.1259006290      0.4330121323
 O      2.5313814520      4.4088404751      0.3240008355
 O      5.1048219835     -0.0296392546      3.9454258460
 O      1.3790538595      6.5557896506      3.9562171160
 O     -2.5285772466      4.4377284207      3.9849923031
 O      4.9697926953      4.4313800755      4.0040739022
 O      1.2318559587      2.1139494219      3.9558088504
 O      4.9935229272     -0.0093309748      6.6575053944
 O      1.1481338588      6.6034843027      6.6527043035
 O     -2.4965254015      4.3531967973      6.6513166596
 O      5.0585729654      4.3509147038      6.6490292895
 O      1.3204917446      2.2035631170      6.6271688802
 O      2.5776905253     -0.0606781755      3.0935729372
 O     -1.1750214285      6.5574346667      3.0632514913
 O     -1.2752379370      2.1952279086      3.0597735537
 O      6.2868389774      2.1795288465      3.0689799556
 O      2.4999630338      4.3020524392      3.0580097479
 H      5.4305645795     -0.7903812233      7.0176311819
 H      1.8006936589      7.2734445591      6.9348294846
 H     -3.4276603730      4.2983439854      6.9046726180
 H      5.6194320975      5.1504670382      6.7877394968
 H      1.9321382712     -0.7650647169      3.4068895346
 H     -1.6747663371      7.3486808975      3.2441554330
 H     -1.6757762432      1.3284586465      3.3292811638
 H      7.1780403967      2.2635894183      3.4390495246
60
# ORCA AIMD Position Step 15, t=7.50 fs, E_Pot=-1525.76361030 Hartree, Unit is Angstrom
 H      2.7150193802     -0.0060511298      1.2727803492
 H     -1.2525983700      6.8632767317      1.3386861476
 H     -1.0949647580      2.2420698148      1.4112029740
 H      6.4615485114      2.0988419476      1.3764712453
 H      2.3918686336      4.5292563371      1.2960387332
 H      4.9173486888      0.1215578738      4.9109955153
 H      1.3160981459      6.4785810606      4.9494452262
 H     -2.3574441336      4.2152178336      4.9454947739
 H      4.8924978946      4.4175225253      4.9976026402
 H      1.3505347942      1.9652631129      4.9359082691
 H      3.4411253877     -0.0370195145     -0.0028031275
 H     -0.3939618983      6.4210284413      0.2448248137
 H     -1.5260591452      3.0371139246      0.1444724946
 H      5.7015764180      2.8204884190      0.2259985562
 H      2.0716602963      3.5089315121      0.2492983474
 H      4.1523453819     -0.1173950147      3.5591338472
 H      0.4271010998      6.5474173384      3.6693211356
 H     -2.1295493474      3.6923028481      3.4411216907
 H      5.6152223773      3.6257740602      3.7437378592
 H      1.8130121087      2.9508582239      3.6343080972
 H      1.4876589412      5.7268983632      6.9092419261
 H     -2.2062657725      5.2329530746      7.0481796820
 H      0.4040236992      2.2771501175      6.9834451570
 H      5.5110937712      0.6834707748      7.0451064080
 H      1.6717604548      1.3434861207      6.9414045004
 H      4.2143120051      4.7045834651      7.0498613356
 H      2.0502920061      0.7729889831      3.3415054130
 H      5.8607939829      1.3241217718      3.4722489406
 H      3.4833798864      4.4291286145      3.4302649283
 H     -1.7541122240      5.7804620787      3.5409981642
 H      2.0112521073      5.0974911379      3.3737487352
 H     -0.3063482606      2.2474904639      3.3489881489
 O      2.5274585253      0.0228635008      0.3327922064
 O     -1.3252772330      6.6545925318      0.4512718839
 O     -1.2106521675      2.1127316062      0.4323250596
 O      6.3358895600      2.1225985084      0.4337915580
 O      2.5292564216      4.4071460697      0.3182967015
 O      5.1042452064     -0.0314238331      3.9434031907
 O      1.3839235494      6.5534416933      3.9546632473
 O     -2.5264350311      4.4389044006      3.9852585429
 O      4.9645513046      4.4316084456      4.0055325022
 O      1.2315958168      2.1115765693      3.9535886845
 O      4.9903272254     -0.0099898564      6.6585501981
 O      1.1418072432      6.6049628399      6.6534287101
 O     -2.4945209868      4.3530097640      6.6522476038
 O      5.0560685835      4.3507886398      6.6502847847
 O      1.3232053463      2.2022668649      6.6258662049
 O      2.5769760028     -0.0645071425      3.0961036143
 O     -1.1717023341      6.5544971990      3.0640044411
 O     -1.2739566556      2.1936372776      3.0593238908
 O      6.2840359027      2.1754869967      3.0696762241
 O      2.4983678373      4.2985738103      3.0583588400
 H      5.4303770216     -0.8019723738      7.0218038529
 H      1.8158765437      7.2691369491      6.9349382710
 H     -3.4397669105      4.2935821317      6.9018031826
 H      5.6334261909      5.1537992766      6.7724990374
 H      1.9213314845     -0.7704726886      3.4032575105
 H     -1.6795431860      7.3599107013      3.2351498531
 H     -1.6687282060      1.3138757232      3.3259536606
 H      7.1856377503      2.2634798558      3.4455836430
60
# ORCA AIMD Position Step 16, t=8.00 fs, E_Pot=-1525.76359466 Hartree, Unit is Angstrom
 H      2.7272721187     -0.0065447788      1.2800635283
 H     -1.2467762767      6.8813731688      1.3549447093
 H     -1.0863886604      2.2488665582      1.4187993595
 H      6.4604688569      2.1033304568      1.3883366754
 H      2.3870769389      4.5393422203      1.2948492480
 H      4.9074662261      0.1261621669      4.9108282103
 H      1.3152204343      6.4743448199      4.9519379280
 H     -2.3433826564      4.1990561737      4.9458999173
 H      4.8848007195      4.4129920107      5.0067406768
 H      1.3571713972      1.9642212968      4.9345397120
 H      3.4553840272     -0.0377017810     -0.0152606191
 H     -0.3866708971      6.4066588581      0.2550697616
 H     -1.5131018036      3.0428346588      0.1516755492
 H      5.6761820578      2.8239287554      0.2438576552
 H      2.0706442490      3.4999466624      0.2560088702
 H      4.1519927885     -0.1236190347      3.5507624348
 H      0.4264195490      6.5475040334      3.6669131919
 H     -2.1324021930      3.6948077878      3.4331744168
 H      5.6104566291      3.6282594324      3.7477010736
 H      1.8141694935      2.9440024260      3.6407130117
 H      1.4809173394      5.7152698755      6.9096142936
 H     -2.2157127560      5.2391014088      7.0514399262
 H      0.4004246233      2.2772328744      6.9863858425
 H      5.5219069784      0.6929725303      7.0558362170
 H      1.6682940637      1.3283716514      6.9462062681
 H      4.2136080853      4.7226197022      7.0536814993
 H      2.0529861823      0.7742447658      3.3306945084
 H      5.8629066211      1.3198952246      3.4695637612
 H      3.4857182901      4.4290234737      3.4232798205
 H     -1.7527462033      5.7800153269      3.5368821477
 H      2.0127863164      5.0906172148      3.3676746779
 H     -0.3060644607      2.2383987428      3.3497918874
 O      2.5295630612      0.0244068486      0.3275926120
 O     -1.3264988026      6.6590523216      0.4528403064
 O     -1.2084830238      2.1100122272      0.4333067823
 O      6.3352675617      2.1192074065      0.4342356871
 O      2.5269815946      4.4052506616      0.3126301759
 O      5.1035352852     -0.0331625537      3.9413934326
 O      1.3887904470      6.5510539054      3.9531948414
 O     -2.5242477150      4.4400901279      3.9855128503
 O      4.9595013917      4.4316561950      4.0069382503
 O      1.2314376477      2.1092336247      3.9512935962
 O      4.9870247410     -0.0107827435      6.6596028556
 O      1.1355020005      6.6064607191      6.6542236228
 O     -2.4924559875      4.3529721091      6.6533376400
 O      5.0535136829      4.3508569939      6.6517205670
 O      1.3258787346      2.2009760487      6.6246254373
 O      2.5760328471     -0.0684582424      3.0987767781
 O     -1.1684941237      6.5513702262      3.0649770520
 O     -1.2727579738      2.1919811663      3.0589791178
 O      6.2812752895      2.1714942215      3.0705232414
 O      2.4969396974      4.2949445309      3.0588216394
 H      5.4299293081     -0.8139785810      7.0253841761
 H      1.8303477518      7.2635901499      6.9347133093
 H     -3.4515398147      4.2889337042      6.8986579373
 H      5.6469160881      5.1553354200      6.7567046093
 H      1.9132713379     -0.7739573399      3.3980039302
 H     -1.6847471509      7.3720057209      3.2266287544
 H     -1.6598286383      1.3018278388      3.3217332049
 H      7.1927286103      2.2625799720      3.4518414803
60
# ORCA AIMD Position Step 17, t=8.50 fs, E_Pot=-1525.76200159 Hartree, Unit is Angstrom
 H      2.7387036081     -0.0070584949      1.2884526227
 H     -1.2407892370      6.8999809511      1.3770676739
 H     -1.0783799847      2.2549860790      1.4240876649
 H      6.4586060239      2.1084213599      1.4020420648
 H      2.3834134306      4.5494108647      1.2925169214
 H      4.8982917658      0.1299102508      4.9091003249
 H      1.3142783539      6.4707415908      4.9520868439
 H     -2.3297086518      4.1836020439      4.9441555338
 H      4.8776254527      4.4077371506      5.0136558528
 H      1.3634018535      1.9648912870      4.9319524681
 H      3.4682864353     -0.0379458435     -0.0278715985
 H     -0.3811306159      6.3924990984      0.2653118111
 H     -1.4987445743      3.0446103748      0.1599905585
 H      5.6513834125      2.8265878187      0.2627838997
 H      2.0713528911      3.4939982027      0.2622198917
 H      4.1543172652     -0.1293474223      3.5433214258
 H      0.4262332716      6.5479810854      3.6642630925
 H     -2.1357139401      3.6978375539      3.4266055069
 H      5.6014769599      3.6339837030      3.7523054899
 H      1.8144316042      2.9366951686      3.6476369659
 H      1.4740240011      5.7052074881      6.9098616836
 H     -2.2261219550      5.2423064875      7.0530522989
 H      0.3987754684      2.2767229384      6.9884625229
 H      5.5330575852      0.7035683974      7.0666975815
 H      1.6640452956      1.3146995143      6.9509963028
 H      4.2147748078      4.7391514184      7.0563828727
 H      2.0562645647      0.7758379124      3.3195919344
 H      5.8648450678      1.3153667480      3.4663429314
 H      3.4858722387      4.4279527389      3.4146660765
 H     -1.7497210093      5.7811217628      3.5304950220
 H      2.0132278417      5.0862280763      3.3625825130
 H     -0.3058532767      2.2282290005      3.3514434345
 O      2.5318028882      0.0259396858      0.3223047151
 O     -1.3276106268      6.6634061417      0.4539360216
 O     -1.2063765951      2.1075899626      0.4342595744
 O      6.3346187581      2.1158243245      0.4344118860
 O      2.5245416412      4.4031382380      0.3070393382
 O      5.1026753128     -0.0348544737      3.9394163496
 O      1.3936189524      6.5486262555      3.9518286548
 O     -2.5220021174      4.4412596486      3.9857826750
 O      4.9546403716      4.4315260417      4.0083377475
 O      1.2313823930      2.1069108053      3.9489430024
 O      4.9837278133     -0.0116572736      6.6607498229
 O      1.1292892145      6.6079455795      6.6551267809
 O     -2.4904106292      4.3530907082      6.6546147876
 O      5.0509140654      4.3511713004      6.6533505001
 O      1.3284957532      2.1996217738      6.6234913638
 O      2.5748580231     -0.0725400508      3.1015855119
 O     -1.1654456931      6.5481591525      3.0661800987
 O     -1.2716509606      2.1902237904      3.0587523184
 O      6.2786348662      2.1675728647      3.0715448080
 O      2.4957043474      4.2911374133      3.0593799992
 H      5.4287289471     -0.8253222839      7.0279483930
 H      1.8434228874      7.2562416846      6.9338817286
 H     -3.4616677397      4.2844890018      6.8948933488
 H      5.6593194272      5.1544448212      6.7403391661
 H      1.9080712033     -0.7753380817      3.3911222995
 H     -1.6894779463      7.3834139587      3.2183677264
 H     -1.6490331059      1.2927686820      3.3164539522
 H      7.1981893026      2.2607730882      3.4573563249
60
# ORCA AIMD Position Step 18, t=9.00 fs, E_Pot=-1525.75989637 Hartree, Unit is Angstrom
 H      2.7490468684     -0.0075587905      1.2963101636
 H     -1.2348481637      6.9182545739      1.4016883939
 H     -1.0709886561      2.2601834283      1.4265690869
 H      6.4558958754      2.1139776934      1.4161459691
 H      2.3809283785      4.5593111083      1.2885875386
 H      4.8899101842      0.1327492021      4.9055911389
 H      1.3133262145      6.4677853341      4.9497344807
 H     -2.3165630265      4.1691115593      4.9399498648
 H      4.8709619687      4.4017897948      5.0178704008
 H      1.3691495211      1.9671510723      4.9281712749
 H      3.4786950397     -0.0376695639     -0.0401207004
 H     -0.3781511542      6.3788273791      0.2757187731
 H     -1.4831191471      3.0425676231      0.1691978951
 H      5.6283412175      2.8272655004      0.2828462253
 H      2.0738218131      3.4911916206      0.2679145555
 H      4.1593143462     -0.1345729285      3.5368603617
 H      0.4269982506      6.5488410908      3.6614996855
 H     -2.1395209152      3.7014477378      3.4214028703
 H      5.5885408572      3.6426750416      3.7574462638
 H      1.8138752839      2.9291524188      3.6548554846
 H      1.4666114985      5.6975597565      6.9097187635
 H     -2.2374163781      5.2426173189      7.0530252605
 H      0.3994950591      2.2756324822      6.9894701616
 H      5.5433289594      0.7135098899      7.0767898902
 H      1.6587474585      1.3033813475      6.9553999521
 H      4.2180989034      4.7540803821      7.0578571499
 H      2.0600585405      0.7776789783      3.3082992913
 H      5.8665208350      1.3103686387      3.4626844851
 H      3.4838237479      4.4259406828      3.4045303451
 H     -1.7452409525      5.7836021509      3.5220613779
 H      2.0124584399      5.0845596371      3.3586029629
 H     -0.3056545869      2.2171697003      3.3538943318
 O      2.5342663960      0.0274547296      0.3170003857
 O     -1.3285477090      6.6676873906      0.4547539981
 O     -1.2043218302      2.1054712098      0.4352266008
 O      6.3338736080      2.1125325984      0.4344042048
 O      2.5219314209      4.4008098213      0.3015558458
 O      5.1016612980     -0.0364995345      3.9374861992
 O      1.3983769074      6.5461598378      3.9505677562
 O     -2.5196890144      4.4423931868      3.9860879265
 O      4.9499560701      4.4312332527      4.0097682742
 O      1.2314280466      2.1045976302      3.9465503879
 O      4.9805359658     -0.0125598496      6.6620664540
 O      1.1232258126      6.6093867607      6.6561664117
 O     -2.4884548034      4.3533565009      6.6560938448
 O      5.0482801805      4.3517646762      6.6551783897
 O      1.3310473105      2.1981465177      6.6224989385
 O      2.5734629531     -0.0767443373      3.1045169161
 O     -1.1625918579      6.5449643521      3.0676156487
 O     -1.2706329042      2.1883472311      3.0586518703
 O      6.2761743423      2.1637408124      3.0727581865
 O      2.4946702264      4.2871397628      3.0600188917
 H      5.4263961878     -0.8351026759      7.0291691479
 H      1.8545616352      7.2467277034      6.9322450809
 H     -3.4691067180      4.2803160461      6.8902495763
 H      5.6701944158      5.1507119890      6.7234381832
 H      1.9056077880     -0.7746774255      3.3827089691
 H     -1.6929715103      7.3927929539      3.2102290512
 H     -1.6364596750      1.2868414919      3.3100418761
 H      7.2011625387      2.2579753747      3.4617704470
60
# ORCA AIMD Position Step 19, t=9.50 fs, E_Pot=-1525.75875415 Hartree, Unit is Angstrom
 H      2.7580709895     -0.0080161759      1.3022360655
 H     -1.2291663042      6.9353474099      1.4256854434
 H     -1.0642273133      2.2642373385      1.4260175062
 H      6.4523117224      2.1198279093      1.4292947249
 H      2.3796453135      4.5689130396      1.2827580332
 H      4.8823723095      0.1346598459      4.9002624614
 H      1.3124088825      6.4654669694      4.9449668930
 H     -2.3040542476      4.1557906908      4.9331704866
 H      4.8647768795      4.3951919477      5.0191488740
 H      1.3743548516      1.9708408263      4.9233438712
 H      3.4857940437     -0.0368127181     -0.0516037403
 H     -0.3782766076      6.3658736053      0.2863945226
 H     -1.4664581264      3.0371665782      0.1789683215
 H      5.6079734634      2.8250687805      0.3039659528
 H      2.0779481685      3.4913515573      0.2730600021
 H      4.1667947562     -0.1393143364      3.5313372696
 H      0.4290906361      6.5500710046      3.6587232064
 H     -2.1438215510      3.7056125425      3.4174784899
 H      5.5721346587      3.6538283979      3.7629435307
 H      1.8126111946      2.9216287059      3.6621209876
 H      1.4584066639      5.6929019352      6.9089969486
 H     -2.2494275981      5.2403610738      7.0514933058
 H      0.4027497662      2.2740104193      6.9892982403
 H      5.5517237125      0.7213746438      7.0853801291
 H      1.6522667042      1.2950661386      6.9591271101
 H      4.2236423467      4.7674001404      7.0581003717
 H      2.0643052373      0.7796517187      3.2969124347
 H      5.8678679832      1.3047742220      3.4586636768
 H      3.4796548964      4.4230449210      3.3930243795
 H     -1.7396006635      5.7871656110      3.5118744399
 H      2.0105431212      5.0855672215      3.3557554748
 H     -0.3054397810      2.2054328650      3.3570702760
 O      2.5370195470      0.0289462765      0.3117438092
 O     -1.3292615762      6.6719325594      0.4554772137
 O     -1.2023034389      2.1036399640      0.4362414571
 O      6.3329757051      2.1093982726      0.4343008460
 O      2.5191559548      4.3982829299      0.2962028330
 O      5.1005026272     -0.0380984855      3.9356114066
 O      1.4030378585      6.5436567514      3.9494020671
 O     -2.5173036328      4.4434782221      3.9864405316
 O      4.9454251882      4.4308075601      4.0112579731
 O      1.2315696603      2.1022830316      3.9441234239
 O      4.9775268645     -0.0134426512      6.6636101359
 O      1.1173517110      6.6107577192      6.6573602402
 O     -2.4866441076      4.3537451190      6.6577760643
 O      5.0456264912      4.3526503060      6.6571985361
 O      1.3335316430      2.1965072015      6.6216717300
 O      2.5718738082     -0.0810462392      3.1075525055
 O     -1.1599496083      6.5418753048      3.0692764963
 O     -1.2696900659      2.1863517019      3.0586815843
 O      6.2739325941      2.1600104595      3.0741733196
 O      2.4938265158      4.2829556798      3.0607271504
 H      5.4226817625     -0.8426559609      7.0288323703
 H      1.8634005700      7.2348952544      6.9296847835
 H     -3.4731335492      4.2764525769      6.8845572265
 H      5.6792601308      5.1439446231      6.7060758097
 H      1.9055162500     -0.7722799540      3.3729545955
 H     -1.6946565699      7.3991031311      3.2021613068
 H     -1.6223766397      1.2838754711      3.3025096861
 H      7.2010975136      2.2541429529      3.4648524119
60
# ORCA AIMD Position Step 20, t=10.00 fs, E_Pot=-1525.75943024 Hartree, Unit is Angstrom
 H      2.7656015660     -0.0084084010      1.3051588349
 H     -1.2239292230      6.9505375024      1.4465492664
 H     -1.0580668874      2.2669593402      1.4224893852
 H      6.4478836767      2.1257688765      1.4403558178
 H      2.3795582821      4.5781186999      1.2748958774
 H      4.8756887149      0.1356598462      4.8932615640
 H      1.3115580050      6.4637544742      4.9381082772
 H     -2.2922484312      4.1437820331      4.9239140269
 H      4.8590106832      4.3879937146      5.0175045079
 H      1.3789768807      1.9757679573      4.9177336802
 H      3.4891075865     -0.0353401470     -0.0620458711
 H     -0.3817744736      6.3537989739      0.2973742908
 H     -1.4490801757      3.0291982642      0.1888732581
 H      5.5909259875      2.8194180066      0.3259385882
 H      2.0834949419      3.4940213545      0.2776162878
 H      4.1763774109     -0.1436182775      3.5266124204
 H      0.4327742781      6.5516522817      3.6559948911
 H     -2.1485762412      3.7102243659      3.4146661649
 H      5.5530014411      3.6666563440      3.7685237755
 H      1.8107828628      2.9144154704      3.6691669299
 H      1.4492332335      5.6915119604      6.9075874700
 H     -2.2619096515      5.2361327375      7.0487104584
 H      0.4084501013      2.2719442903      6.9879328023
 H      5.5575103233      0.7261247979      7.0919365475
 H      1.6446016584      1.2901154269      6.9619829584
 H      4.2312433300      4.7792075879      7.0572140867
 H      2.0689482179      0.7816141567      3.2855218654
 H      5.8688471063      1.2985140682      3.4543270792
 H      3.4735614154      4.4193556775      3.3803431065
 H     -1.7331795222      5.7914133817      3.5002886711
 H      2.0077246472      5.0889279592      3.3539546630
 H     -0.3052116132      2.1932519846      3.3608735210
 O      2.5401034697      0.0304106039      0.3065869853
 O     -1.3297228676      6.6761748477      0.4562545121
 O     -1.2003031055      2.1020574439      0.4373269938
 O      6.3318824852      2.1064695400      0.4341846214
 O      2.5162302833      4.3955909916      0.2909931655
 O      5.0992226972     -0.0396529179      3.9337947085
 O      1.4075831038      6.5411201409      3.9483092435
 O     -2.5148462744      4.4445102107      3.9868441043
 O      4.9410114931      4.4302960580      4.0128263644
 O      1.2317994145      2.0999555257      3.9416641222
 O      4.9747531465     -0.0142655324      6.6654178819
 O      1.1116885252      6.6120377432      6.6587153429
 O     -2.4850174866      4.3542179561      6.6596496342
 O      5.0429705184      4.3538206943      6.6593966232
 O      1.3359545403      2.1946765739      6.6210211079
 O      2.5701314627     -0.0854049171      3.1106688798
 O     -1.1575169258      6.5389678677      3.0711468067
 O     -1.2687987059      2.1842554938      3.0588409556
 O      6.2719262864      2.1563878834      3.0757928198
 O      2.4931427265      4.2786054946      3.0614971628
 H      5.4174715306     -0.8475835858      7.0268420868
 H      1.8697714297      7.2207988047      6.9261617807
 H     -3.4733699604      4.2728999416      6.8777354010
 H      5.6864108999      5.1341738945      6.6883507054
 H      1.9071937851     -0.7686834853      3.3621314820
 H     -1.6941740613      7.4016439843      3.1941860398
 H     -1.6071872299      1.2833889112      3.2939496200
 H      7.1977663236      2.2492747276      3.4665031434
60
# ORCA AIMD Position Step 21, t=10.50 fs, E_Pot=-1525.76167530 Hartree, Unit is Angstrom
 H      2.7715303524     -0.0087219396      1.3043604842
 H     -1.2192848491      6.9632805694      1.4624560533
 H     -1.0524341105      2.2682023359      1.4163237038
 H      6.4427070207      2.1315753582      1.4484867281
 H      2.3806309170      4.5868711135      1.2650450636
 H      4.8698256795      0.1358047791      4.8849131030
 H      1.3107888865      6.4625949801      4.9297018961
 H     -2.2811608421      4.1331537781      4.9124856683
 H      4.8535761497      4.3802493973      5.0131932873
 H      1.3829921399      1.9817163972      4.9116928146
 H      3.4884971599     -0.0332426764     -0.0713097230
 H     -0.3886371162      6.3426770927      0.3086264201
 H     -1.4313681426      3.0197631136      0.1984005435
 H      5.5775649139      2.8100296733      0.3484636543
 H      2.0901009400      3.4984718888      0.2815460933
 H      4.1874927201     -0.1475606656      3.5224464860
 H      0.4381852264      6.5535629994      3.6533324141
 H     -2.1537128214      3.7151013783      3.4127256236
 H      5.5321573329      3.6800511128      3.7738023683
 H      1.8085552066      2.9078249855      3.6757176969
 H      1.4390086761      5.6933633723      6.9054600439
 H     -2.2745570707      5.2307704133      7.0450362305
 H      0.4162553408      2.2695609010      6.9854545515
 H      5.5602227468      0.7270993965      7.0961268748
 H      1.6358756230      1.2885932893      6.9638737081
 H      4.2405273551      4.7897108244      7.0554019934
 H      2.0739318191      0.7834098893      3.2742153826
 H      5.8694440549      1.2915800005      3.4496929511
 H      3.4658760596      4.4149955702      3.3667244125
 H     -1.7264386223      5.7958379435      3.4877130944
 H      2.0043843961      5.0940969029      3.3530357295
 H     -0.3049955517      2.1808779191      3.3651895769
 O      2.5435340182      0.0318461348      0.3015686801
 O     -1.3299219323      6.6804423601      0.4571964285
 O     -1.1983010446      2.1006629289      0.4384943302
 O      6.3305652574      2.1037773020      0.4341268849
 O      2.5131788695      4.3927822778      0.2859284548
 O      5.0978589316     -0.0411650448      3.9320336861
 O      1.4120028049      6.5385539958      3.9472560478
 O     -2.5123224110      4.4454929320      3.9872937510
 O      4.9366644042      4.4297655977      4.0144854141
 O      1.2321073557      2.0976036714      3.9391697317
 O      4.9722426896     -0.0149949161      6.6675066801
 O      1.1062390138      6.6132130710      6.6602285947
 O     -2.4835956907      4.3547239785      6.6616910053
 O      5.0403316918      4.3552477234      6.6617511481
 O      1.3383295389      2.1926437733      6.6205461358
 O      2.5682907474     -0.0897656012      3.1138388216
 O     -1.1552728575      6.5363032199      3.0732031088
 O     -1.2679269642      2.1820941745      3.0591255957
 O      6.2701495010      2.1528727393      3.0776118603
 O      2.4925701237      4.2741220813      3.0623233371
 H      5.4107833924     -0.8497621188      7.0232174825
 H      1.8737138217      7.2046892023      6.9217124482
 H     -3.4697891238      4.2696192336      6.8697842584
 H      5.6917237706      5.1216452236      6.6703689777
 H      1.9098174911     -0.7646358684      3.3505735890
 H     -1.6913786358      7.4000622789      3.1863793370
 H     -1.5914069323      1.2846059263      3.2845208749
 H      7.1912697693      2.2434126038      3.4667584640
60
# ORCA AIMD Position Step 22, t=11.00 fs, E_Pot=-1525.76439166 Hartree, Unit is Angstrom
 H      2.7758183477     -0.0089526627      1.2994765475
 H     -1.2153486638      6.9732142832      1.4722065702
 H     -1.0472120286      2.2678684220      1.4081353359
 H      6.4369430946      2.1370087146      1.4531530234
 H      2.3827973012      4.5951588281      1.2534281458
 H      4.8647051014      0.1351855818      4.8756998005
 H      1.3100986325      6.4619183673      4.9204743487
 H     -2.2707499203      4.1238937504      4.8993951697
 H      4.8483573077      4.3720134083      5.0067106468
 H      1.3863925015      1.9884559419      4.9056366170
 H      3.4841573422     -0.0305371855     -0.0794002181
 H     -0.3985916477      6.3324822239      0.3200572047
 H     -1.4137384438      3.0102070129      0.2069833383
 H      5.5679797905      2.7968943336      0.3711700222
 H      2.0972987810      3.5037311840      0.2848240175
 H      4.1993964664     -0.1512453176      3.5185064016
 H      0.4453167235      6.5557788664      3.6507055998
 H     -2.1591330640      3.7200009850      3.4113531621
 H      5.5108706644      3.6925845843      3.7782788619
 H      1.8061052484      2.9021774533      3.6814963544
 H      1.4277404562      5.6981229933      6.9026607675
 H     -2.2870292519      5.2253000594      7.0409079891
 H      0.4255898531      2.2670247549      6.9820324767
 H      5.5596481061      0.7239928018      7.0978077031
 H      1.6263279427      1.2902625636      6.9648110673
 H      4.2509281042      4.7992306782      7.0529611303
 H      2.0791980461      0.7848755445      3.2630802027
 H      5.8696675150      1.2840273717      3.4447542043
 H      3.4570858083      4.4101166140      3.3524471813
 H     -1.7198987943      5.7998454169      3.4745923471
 H      2.0009839842      5.1003924979      3.3527889028
 H     -0.3048289352      2.1685745071      3.3698944307
 O      2.5473018271      0.0332534851      0.2967147438
 O     -1.3298679236      6.6847587373      0.4583791845
 O     -1.1962779633      2.0993773204      0.4397413997
 O      6.3290089864      2.1013360991      0.4341848025
 O      2.5100344343      4.3899177722      0.2809983915
 O      5.0964618523     -0.0426375558      3.9303215649
 O      1.4162968735      6.5359629764      3.9462007023
 O     -2.5097427121      4.4464381121      3.9877757714
 O      4.9323199294      4.4293028277      4.0162396317
 O      1.2324821543      2.0952166914      3.9366337930
 O      4.9699996788     -0.0156022484      6.6698745620
 O      1.1009869730      6.6142779147      6.6618872519
 O     -2.4823794381      4.3552033408      6.6638670227
 O      5.0377298949      4.3568833014      6.6642349860
 O      1.3406774358      2.1904146212      6.6202336646
 O      2.5664173280     -0.0940638188      3.1170330816
 O     -1.1531790387      6.5339263103      3.0754161216
 O     -1.2670375239      2.1799180224      3.0595280022
 O      6.2685739022      2.1494585874      3.0796182704
 O      2.4920446098      4.2695451929      3.0632001784
 H      5.4027629829     -0.8493456973      7.0180877190
 H      1.8754811630      7.1869993522      6.9164436681
 H     -3.4627202959      4.2665284086      6.8607776769
 H      5.6954609444      5.1068062252      6.6522295385
 H      1.9123999863     -0.7610351506      3.3386451879
 H     -1.6863327112      7.3943493849      3.1788549432
 H     -1.5756310555      1.2865019921      3.2744312192
 H      7.1820364243      2.2366387901      3.4657879763
60
# ORCA AIMD Position Step 23, t=11.50 fs, E_Pot=-1525.76636338 Hartree, Unit is Angstrom
 H      2.7784970704     -0.0091064550      1.2904878778
 H     -1.2122109572      6.9801501149      1.4751393196
 H     -1.0422435003      2.2659164568      1.3987908437
 H      6.4308171059      2.1418265276      1.4541272779
 H      2.3859643042      4.6030176730      1.2404378292
 H      4.8602075511      0.1339230728      4.8662289067
 H      1.3094663998      6.4616434197      4.9112760847
 H     -2.2609141520      4.1159078303      4.8853377529
 H      4.8432111170      4.3633327624      4.9987740725
 H      1.3891806777      1.9957545186      4.9000007215
 H      3.4766121772     -0.0272658793     -0.0864696870
 H     -0.4111138999      6.3230771067      0.3315178073
 H     -1.3965950422      3.0019890829      0.2140475805
 H      5.5619770249      2.7802624218      0.3936395971
 H      2.1045507611      3.5086512226      0.2874458787
 H      4.2112111613     -0.1547994133      3.5143846704
 H      0.4540171938      6.5582754452      3.6480368804
 H     -2.1647240454      3.7246415160      3.4102004929
 H      5.4905632481      3.7026053550      3.7813639678
 H      1.8036036138      2.8977749885      3.6862374753
 H      1.4155202092      5.7051557678      6.8993083181
 H     -2.2989838241      5.2208374363      7.0367947921
 H      0.4356755644      2.2645341740      6.9779106030
 H      5.5558197751      0.7168390865      7.0970173559
 H      1.6163021429      1.2945851327      6.9649157671
 H      4.2617289628      4.8081917808      7.0502631194
 H      2.0846790749      0.7858563896      3.2522053918
 H      5.8695429528      1.2759662979      3.4394862382
 H      3.4478396767      4.4048956111      3.3378252637
 H     -1.7141081554      5.8027907764      3.4613805352
 H      1.9980035836      5.1070884207      3.3529933530
 H     -0.3047475565      2.1566110175      3.3748640596
 O      2.5513724338      0.0346354762      0.2920388634
 O     -1.3295875346      6.6891446092      0.4598501602
 O     -1.1942177940      2.0981110106      0.4410513598
 O      6.3272128506      2.0991444873      0.4343998890
 O      2.5068355727      4.3870668472      0.2761806748
 O      5.0950923612     -0.0440734129      3.9286480627
 O      1.4204750820      6.5333520282      3.9450964877
 O     -2.5071224889      4.4473644480      3.9882676857
 O      4.9279062134      4.4290084744      4.0180850665
 O      1.2329124837      2.0927854264      3.9340478809
 O      4.9680054977     -0.0160631990      6.6725016843
 O      1.0958977556      6.6152355698      6.6636699273
 O     -2.4813473092      4.3555935590      6.6661383869
 O      5.0351833592      4.3586614636      6.6668177160
 O      1.3430250062      2.1880118177      6.6200590124
 O      2.5645818326     -0.0982328522      3.1202230941
 O     -1.1511817577      6.5318627667      3.0777529646
 O     -1.2660913538      2.1777867530      3.0600389917
 O      6.2671495607      2.1461337799      3.0817924369
 O      2.4914905510      4.2649156896      3.0641206781
 H      5.3936762881     -0.8467627779      7.0116831360
 H      1.8755384087      7.1683212450      6.9105239233
 H     -3.4528482459      4.2635013532      6.8508538342
 H      5.6980617964      5.0902821821      6.6340076644
 H      1.9138903229     -0.7588250658      3.3266957311
 H     -1.6793058977      7.3848469969      3.1717491694
 H     -1.5604861941      1.2878952953      3.2639072989
 H      7.1708153301      2.2290710810      3.4638921944
60
# ORCA AIMD Position Step 24, t=12.00 fs, E_Pot=-1525.76695647 Hartree, Unit is Angstrom
 H      2.7796700850     -0.0092004104      1.2777193632
 H     -1.2099420869      6.9840663130      1.4710747175
 H     -1.0373400829      2.2623668623      1.3893556422
 H      6.4246145133      2.1457911024      1.4514805844
 H      2.3900157930      4.6105271887      1.2266173212
 H      4.8561804328      0.1321579997      4.8571800958
 H      1.3088570164      6.4616862958      4.9029935638
 H     -2.2514949281      4.1090271227      4.8711547838
 H      4.8379729087      4.3542375891      4.9902864118
 H      1.3913643843      2.0033904958      4.8951920628
 H      3.4667077832     -0.0234944573     -0.0928212167
 H     -0.4254547492      6.3142064895      0.3428125642
 H     -1.3802728065      2.9964716919      0.2190798013
 H      5.5590665953      2.7606364503      0.4154287094
 H      2.1113066468      3.5120270069      0.2894358060
 H      4.2220015847     -0.1583636208      3.5096375242
 H      0.4639958876      6.5610301758      3.6452047453
 H     -2.1703722555      3.7287312839      3.4089023508
 H      5.4726084523      3.7084710219      3.7824547276
 H      1.8011944745      2.8948727435      3.6897006159
 H      1.4025147047      5.7135439352      6.8955871251
 H     -2.3101171876      5.2184420975      7.0331324679
 H      0.4455912100      2.2623130971      6.9733846219
 H      5.5490248652      0.7060150838      7.0939788483
 H      1.6062290504      1.3007342229      6.9644175950
 H      4.2721311274      4.8170969683      7.0477219856
 H      2.0902903247      0.7862224902      3.2416832474
 H      5.8691052523      1.2675472780      3.4338570016
 H      3.4389302175      4.3995254959      3.3231944482
 H     -1.7095887825      5.8040407605      3.4485032474
 H      1.9958896421      5.1134910229      3.3534437217
 H     -0.3047735052      2.1452525482      3.3799839034
 O      2.5556866203      0.0359971211      0.2875427269
 O     -1.3291230767      6.6936185090      0.4616312586
 O     -1.1921107484      2.0967768116      0.4423914656
 O      6.3251912609      2.0971850615      0.4347971065
 O      2.5036228756      4.3842999438      0.2714417541
 O      5.0938166012     -0.0454757444      3.9270002325
 O      1.4245565310      6.5307258846      3.9438969650
 O     -2.5044806129      4.4482956375      3.9887389607
 O      4.9233553983      4.4289833158      4.0200065497
 O      1.2333885865      2.0903034698      3.9314036986
 O      4.9662189785     -0.0163586954      6.6753511004
 O      1.0909200834      6.6160994704      6.6655480921
 O     -2.4804540824      4.3558384661      6.6684644857
 O      5.0327060215      4.3605026337      6.6694686251
 O      1.3454023696      2.1854746513      6.6199874714
 O      2.5628506719     -0.1022143538      3.1233843095
 O     -1.1492151256      6.5301139342      3.0801800478
 O     -1.2650523111      2.1757607058      3.0606497926
 O      6.2658072417      2.1428828411      3.0841076307
 O      2.4908255692      4.2602708948      3.0650756227
 H      5.3838974332     -0.8427024345      7.0043215425
 H      1.8745418630      7.1493694528      6.9041692452
 H     -3.4411982029      4.2603703724      6.8402030431
 H      5.7001165467      5.0728342412      6.6157409733
 H      1.9133264613     -0.7588413409      3.3150059162
 H     -1.6707777177      7.3722569802      3.1652083189
 H     -1.5465664298      1.2875960094      3.2531552575
 H      7.1586472181      2.2208543104      3.4614907898
60
# ORCA AIMD Position Step 25, t=12.50 fs, E_Pot=-1525.76631670 Hartree, Unit is Angstrom
 H      2.7795153864     -0.0092648576      1.2618455374
 H     -1.2085922960      6.9851099303      1.4603089698
 H     -1.0322982072      2.2573005216      1.3809992755
 H      6.4186760509      2.1486777720      1.4455744155
 H      2.3948189422      4.6178003918      1.2126240386
 H      4.8524518551      0.1300366315      4.8492339085
 H      1.3082284481      6.4619706439      4.8964364510
 H     -2.2422884215      4.1030273598      4.8577662312
 H      4.8324667395      4.3447313423      4.9822663359
 H      1.3929499913      2.0111637394      4.8915378824
 H      3.4555853550     -0.0193080688     -0.0989034619
 H     -0.4406890436      6.3055012903      0.3537095759
 H     -1.3649828194      2.9946620720      0.2217060817
 H      5.5584481249      2.7387622775      0.4360905821
 H      2.1170815280      3.5127683162      0.2908490869
 H      4.2308860371     -0.1620763115      3.5038437325
 H      0.4748392650      6.5640241429      3.6420513316
 H     -2.1759793886      3.7320031480      3.4071117014
 H      5.4580481287      3.7089021608      3.7810570218
 H      1.7989762598      2.8936500968      3.6916835644
 H      1.3889495153      5.7221362803      6.8917340327
 H     -2.3202061142      5.2189408758      7.0302493040
 H      0.4543658679      2.2605970512      6.9687661623
 H      5.5398253552      0.6922593521      7.0891120494
 H      1.5965999577      1.3076336613      6.9636461504
 H      4.2813517586      4.8264805391      7.0457466849
 H      2.0959247181      0.7858846901      3.2316093980
 H      5.8683909056      1.2589423843      3.4278380569
 H      3.4312363859      4.3942015829      3.3088908224
 H     -1.7067677838      5.8030599318      3.4363133083
 H      1.9950177258      5.1189938208      3.3539670456
 H     -0.3049061833      2.1347487675      3.3851572959
 O      2.5601619399      0.0373455264      0.2832151906
 O     -1.3285294609      6.6981964496      0.4637188892
 O     -1.1899557723      2.0953062993      0.4437138333
 O      6.3229749597      2.0954245192      0.4353838489
 O      2.5004336533      4.3816783239      0.2667388497
 O      5.0926982641     -0.0468478558      3.9253632380
 O      1.4285682550      6.5280884913      3.9425625558
 O     -2.5018377709      4.4492572843      3.9891529999
 O      4.9186203935      4.4293065578      4.0219741013
 O      1.2339038281      2.0877683280      3.9286953177
 O      4.9645764135     -0.0164783855      6.6783695230
 O      1.0859901355      6.6168936388      6.6674884566
 O     -2.4796312394      4.3558986998      6.6708092234
 O      5.0303047432      4.3623208005      6.6721603147
 O      1.3478388348      2.1828573804      6.6199771661
 O      2.5612750817     -0.1059703755      3.1264992989
 O     -1.1472054566      6.5286511137      3.0826663850
 O     -1.2638920207      2.1738890806      3.0613544698
 O      6.2644633624      2.1396883548      3.0865313275
 O      2.4899667017      4.2556417553      3.0660540394
 H      5.3738861226     -0.8380780498      6.9963854986
 H      1.8732897435      7.1309241509      6.8976214934
 H     -3.4290851084      4.2569347873      6.8290495695
 H      5.7023118330      5.0552926867      6.5974209384
 H      1.9100139418     -0.7616354496      3.3037388081
 H     -1.6614372234      7.3576429546      3.1593775856
 H     -1.5343617631      1.2846036208      3.2423177546
 H      7.1467940851      2.2121467571      3.4590936241
60
# ORCA AIMD Position Step 26, t=13.00 fs, E_Pot=-1525.76500865 Hartree, Unit is Angstrom
 H      2.7782872098     -0.0093459880      1.2438930561
 H     -1.2081838565      6.9836096346      1.4436599298
 H     -1.0269236172      2.2508488526      1.3748537583
 H      6.4133898319      2.1502839279      1.4370513250
 H      2.4002326602      4.6249656603      1.1991725490
 H      4.8488498407      0.1276930923      4.8429860109
 H      1.3075422323      6.4624375309      4.8922156057
 H     -2.2330689590      4.0976629327      4.8460728970
 H      4.8265204586      4.3347848299      4.9757378914
 H      1.3939370046      2.0189037400      4.8892410291
 H      3.4446112780     -0.0148037284     -0.1052852920
 H     -0.4557985516      6.2965013585      0.3639549504
 H     -1.3507791236      2.9969821733      0.2217615786
 H      5.5590133396      2.7156046288      0.4552011712
 H      2.1215392048      3.5100969743      0.2917691645
 H      4.2371684342     -0.1660532765      3.4966779123
 H      0.4860406941      6.5672431591      3.6383949843
 H     -2.1814773916      3.7342503293      3.4045388115
 H      5.4473266681      3.7033438931      3.7769203565
 H      1.7969871931      2.8941874630      3.6920334649
 H      1.3750811200      5.7296452460      6.8880147515
 H     -2.3291399242      5.2227644709      7.0283021509
 H      0.4611052632      2.2596127102      6.9643362757
 H      5.5290826770      0.6766921658      7.0830474408
 H      1.5879255533      1.3140428320      6.9630045527
 H      4.2887441021      4.8368413532      7.0446819515
 H      2.1014494559      0.7848080835      3.2220816039
 H      5.8674309363      1.2503248870      3.4214150864
 H      3.4256219524      4.3891024074      3.2952217550
 H     -1.7059069407      5.7995034895      3.4250514828
 H      1.9956703497      5.1231096404      3.3544312450
 H     -0.3051177178      2.1253222646      3.3903117064
 O      2.5646969832      0.0386896094      0.2790303803
 O     -1.3278694858      6.7028895475      0.4660802632
 O     -1.1877611196      2.0936649349      0.4449597342
 O      6.3206112323      2.0938146449      0.4361487731
 O      2.4972961785      4.3792426943      0.2620236416
 O      5.0917892764     -0.0481933466      3.9237211234
 O      1.4325428322      6.5254424832      3.9410674474
 O     -2.4992140605      4.4502727602      3.9894707695
 O      4.9136904468      4.4300134851      4.0239412188
 O      1.2344559089      2.0851823666      3.9259211807
 O      4.9629923534     -0.0164265678      6.6814887787
 O      1.0810387798      6.6176515752      6.6694564808
 O     -2.4787919326      4.3557607983      6.6731467550
 O      5.0279772696      4.3640336241      6.6748723716
 O      1.3503575799      2.1802251571      6.6199836525
 O      2.5598817466     -0.1094931784      3.1295594174
 O     -1.1450769228      6.5274117255      3.0851867501
 O     -1.2625939556      2.1721977991      3.0621519130
 O      6.2630287925      2.1365332697      3.0890281426
 O      2.4888382839      4.2510518208      3.0670446082
 H      5.3641488861     -0.8339527758      6.9882867478
 H      1.8726343349      7.1137509846      6.8911183759
 H     -3.4180014431      4.2529785883      6.8176248760
 H      5.7053425085      5.0384638846      6.5789948499
 H      1.9036763881     -0.7673310646      3.2929152135
 H     -1.6521645515      7.3423971629      3.1543903018
 H     -1.5241950682      1.2783101943      3.2314402977
 H      7.1366070331      2.2031013154      3.4572461693
60
# ORCA AIMD Position Step 27, t=13.50 fs, E_Pot=-1525.76356457 Hartree, Unit is Angstrom
 H      2.7763135411     -0.0095081441      1.2252184615
 H     -1.2086940107      6.9800960938      1.4225552010
 H     -1.0210622253      2.2431749565      1.3718382828
 H      6.4091780139      2.1504393665      1.4268155571
 H      2.4061175066      4.6321409648      1.1869566243
 H      4.8452246238      0.1252313683      4.8388604025
 H      1.3067742535      6.4630526585      4.8906392899
 H     -2.2236233616      4.0927136912      4.8368375370
 H      4.8199835034      4.3243392527      4.9715845822
 H      1.3943148526      2.0264736120      4.8883505572
 H      3.4352413591     -0.0100785231     -0.1125970122
 H     -0.4697937486      6.2867040495      0.3732918196
 H     -1.3375621993      3.0031609963      0.2193260508
 H      5.5593915526      2.6922872191      0.4723879661
 H      2.1245557099      3.5037135433      0.2922991073
 H      4.2404591400     -0.1703672173      3.4879821964
 H      0.4970451830      6.5706776541      3.6340481666
 H     -2.1868396970      3.7353572989      3.4009879452
 H      5.4401801146      3.6921537408      3.7701225611
 H      1.7951991907      2.8964539052      3.6906541110
 H      1.3611558079      5.7348019444      6.8846883669
 H     -2.3369328134      5.2298531653      7.0272459538
 H      0.4651334465      2.2595525690      6.9602957107
 H      5.5179614962      0.6608041442      7.0766239173
 H      1.5806798725      1.3187006649      6.9629196864
 H      4.2939163113      4.8485662424      7.0447486185
 H      2.1067065852      0.7830202547      3.2131974645
 H      5.8662455240      1.2418504539      3.4145963767
 H      3.4228002456      4.3843670480      3.2824353762
 H     -1.7070521706      5.7932897149      3.4148256469
 H      1.9980265862      5.1254860504      3.3547478898
 H     -0.3053529607      2.1171581068      3.3954019863
 O      2.5691800680      0.0400395224      0.2749452790
 O     -1.3272072082      6.7076994442      0.4686464798
 O     -1.1855422051      2.0918600406      0.4460681622
 O      6.3181617275      2.0922954230      0.4370610643
 O      2.4942250918      4.3770042399      0.2572476384
 O      5.0911209924     -0.0495162500      3.9220577768
 O      1.4365150244      6.5227888884      3.9394050692
 O     -2.4966261506      4.4513585133      3.9896558976
 O      4.9085969829      4.4310834343      4.0258486246
 O      1.2350474242      2.0825533087      3.9230854220
 O      4.9613629013     -0.0162292676      6.6846290901
 O      1.0760019728      6.6184125611      6.6714209149
 O     -2.4778421523      4.3554412742      6.6754656113
 O      5.0257120499      4.3655741769      6.6775941287
 O      1.3529703017      2.1776465591      6.6199661805
 O      2.5586687722     -0.1128088521      3.1325642083
 O     -1.1427585455      6.5263014221      3.0877239242
 O     -1.2611554934      2.1706810991      3.0630464851
 O      6.2614216916      2.1334033408      3.0915645762
 O      2.4873810994      4.2465175879      3.0680374902
 H      5.3551814697     -0.8314154433      6.9804170817
 H      1.8733572696      7.0985041895      6.8848582193
 H     -3.4094266438      4.2482989312      6.8061331143
 H      5.7097952830      5.0230209223      6.5603823031
 H      1.8945171627     -0.7755734577      3.2824261036
 H     -1.6439723670      7.3281359201      3.1503566337
 H     -1.5161871736      1.2686429111      3.2204614244
 H      7.1293281440      2.1938439154      3.4564477569
60
# ORCA AIMD Position Step 28, t=14.00 fs, E_Pot=-1525.76239023 Hartree, Unit is Angstrom
 H      2.7739831891     -0.0098338951      1.2074289819
 H     -1.2100300308      6.9753190413      1.3991298462
 H     -1.0146313929      2.2344505667      1.3724879020
 H      6.4064754996      2.1490174752      1.4159881679
 H      2.4123455745      4.6394032146      1.1765574178
 H      4.8414699507      0.1227109431      4.8370399785
 H      1.3059222901      6.4638087599      4.8916570478
 H     -2.2137907485      4.0880362401      4.8305673126
 H      4.8127437113      4.3133215838      4.9703937763
 H      1.3940629539      2.0337697934      4.8887535511
 H      3.4288128815     -0.0052147724     -0.1214312729
 H     -0.4818632358      6.2756396166      0.3814840741
 H     -1.3251184650      3.0123006445      0.2147107852
 H      5.5580688099      2.6699792732      0.4873567549
 H      2.1262380122      3.4938704934      0.2925501753
 H      4.2407462896     -0.1750332378      3.4778144200
 H      0.5073087042      6.5743210419      3.6288401294
 H     -2.1920861892      3.7353195197      3.3963844098
 H      5.4357498222      3.6765028507      3.7610577342
 H      1.7935213309      2.9003078119      3.6875086811
 H      1.3473601998      5.7365571780      6.8819632743
 H     -2.3437121350      5.2396696332      7.0268493875
 H      0.4661159525      2.2605490388      6.9567250812
 H      5.5078716308      0.6463623038      7.0708416420
 H      1.5752354605      1.3205218008      6.9637698670
 H      4.2968146609      4.8618638561      7.0460003697
 H      2.1115184541      0.7806113111      3.2050514239
 H      5.8648407625      1.2336421425      3.4074181536
 H      3.4231971040      4.3800737425      3.2706981075
 H     -1.7100216758      5.7846256524      3.4056169254
 H      2.0021592568      5.1259114899      3.3548721925
 H     -0.3055329593      2.1103959887      3.4004105761
 O      2.5735031431      0.0414057393      0.2708984101
 O     -1.3266000181      6.7126121704      0.4713044298
 O     -1.1833171615      2.0899381014      0.4469872704
 O      6.3156961279      2.0908014648      0.4380714104
 O      2.4912196409      4.3749418695      0.2523686296
 O      5.0906985335     -0.0508210388      3.9203582967
 O      1.4405176926      6.5201271836      3.9375902996
 O     -2.4940845013      4.4525197364      3.9896803046
 O      4.9034055161      4.4324449991      4.0276347777
 O      1.2356856181      2.0798941486      3.9201981862
 O      4.9595737674     -0.0159389108      6.6877056368
 O      1.0708327648      6.6192149812      6.6733586916
 O     -2.4766975440      4.3549833920      6.6777699803
 O      5.0234906594      4.3669015522      6.6803254680
 O      1.3556735709      2.1751828814      6.6198947493
 O      2.5576086631     -0.1159729901      3.1355188149
 O     -1.1401926747      6.5252058037      3.0902695264
 O     -1.2595872811      2.1693004008      3.0640468953
 O      6.2595824796      2.1302892151      3.0941148466
 O      2.4855611129      4.2420494727      3.0690257912
 H      5.3473976385     -0.8314121664      6.9730915140
 H      1.8760280437      7.0856311857      6.8789669335
 H     -3.4045711416      4.2427436855      6.7947156386
 H      5.7160268470      5.0094018013      6.5415058584
 H      1.8831650405     -0.7855969096      3.2720774932
 H     -1.6378860728      7.3164916231      3.1473516928
 H     -1.5102617809      1.2560883525      3.2092331147
 H      7.1258560992      2.1844548792      3.4570555227
60
# ORCA AIMD Position Step 29, t=14.50 fs, E_Pot=-1525.76191861 Hartree, Unit is Angstrom
 H      2.7717164978     -0.0104190479      1.1922153590
 H     -1.2120051602      6.9702375951      1.3762588822
 H     -1.0076421586      2.2248373661      1.3768403178
 H      6.4056984318      2.1459453646      1.4058203610
 H      2.4188077322      4.6467583648      1.1683566739
 H      4.8375377474      0.1201409358      4.8374369780
 H      1.3050069589      6.4647218442      4.8948729583
 H     -2.2034970987      4.0836046157      4.8274325793
 H      4.8047385865      4.3016705386      4.9723391674
 H      1.3931548975      2.0407180603      4.8901949567
 H      3.4262980569     -0.0002661390     -0.1322145659
 H     -0.4915170115      6.2629637746      0.3883435859
 H     -1.3131788803      3.0230832927      0.2084028129
 H      5.5535977135      2.6497264347      0.4999083543
 H      2.1268889120      3.4813200434      0.2926311157
 H      4.2383876900     -0.1800052488      3.4664537251
 H      0.5163629402      6.5781654896      3.6226415389
 H     -2.1972785955      3.7342452538      3.3907846337
 H      5.4328534979      3.6580517792      3.7503377919
 H      1.7918152928      2.9055148374      3.6826164776
 H      1.3337773229      5.7342846183      6.8799552437
 H     -2.3496873871      5.2513128283      7.0267501056
 H      0.4641274817      2.2626538870      6.9535684297
 H      5.5003033092      0.6351831941      7.0667406590
 H      1.5718048567      1.3188056685      6.9658037771
 H      4.2977417187      4.8767294312      7.0483116488
 H      2.1156973321      0.7777260495      3.1977316695
 H      5.8632085704      1.2257830480      3.3999461185
 H      3.4268545132      4.3762260155      3.2600889233
 H     -1.7144375113      5.7739766452      3.3973110311
 H      2.0080381821      5.1243133891      3.3548009530
 H     -0.3055637880      2.1051262484      3.4053434988
 O      2.5775791651      0.0427978750      0.2668122453
 O     -1.3260910079      6.7175925824      0.4738923305
 O     -1.1811017695      2.0879729175      0.4476849277
 O      6.3132807586      2.0892719977      0.4391162177
 O      2.4882654827      4.3730073255      0.2473568295
 O      5.0905004552     -0.0521125504      3.9186105892
 O      1.4445777136      6.5174559089      3.9356572474
 O     -2.4915915054      4.4537477591      3.9895286559
 O      4.8981981362      4.4339947635      4.0292495370
 O      1.2363812472      2.0772223015      3.9172746670
 O      4.9575148861     -0.0156314517      6.6906392783
 O      1.0655116505      6.6200877349      6.6752587819
 O     -2.4753016755      4.3544475306      6.6800776796
 O      5.0212924306      4.3680070620      6.6830750768
 O      1.3584482666      2.1728762676      6.6197561618
 O      2.5566568354     -0.1190602150      3.1384305518
 O     -1.1373444721      6.5240116120      3.0928233889
 O     -1.2579101425      2.1679909652      3.0651637722
 O      6.2574864943      2.1271874717      3.0966659843
 O      2.4833751839      4.2376527444      3.0700060567
 H      5.3410607062     -0.8345648139      6.9664984498
 H      1.8808836405      7.0753056011      6.8734780051
 H     -3.4041170239      4.2362501062      6.7834278333
 H      5.7240720689      4.9977466427      6.5223298022
 H      1.8705287394     -0.7963822858      3.2616487801
 H     -1.6347647260      7.3088119135      3.1454050693
 H     -1.5061862642      1.2415895973      3.1975643390
 H      7.1265454255      2.1749608074      3.4592036400
60
# ORCA AIMD Position Step 30, t=15.00 fs, E_Pot=-1525.76261573 Hartree, Unit is Angstrom
 H      2.7699171359     -0.0113605077      1.1810878067
 H     -1.2143353728      6.9659425435      1.3573770479
 H     -1.0002038344      2.2144798551      1.3844225031
 H      6.4072039891      2.1412100820      1.3975524776
 H      2.4254166979      4.6541205189      1.1624716382
 H      4.8334435027      0.1174830773      4.8397065408
 H      1.3040669647      6.4658238532      4.8996166164
 H     -2.1927742427      4.0795277971      4.8272436177
 H      4.7959583264      4.2893649660      4.9771381773
 H      1.3915643617      2.0472678251      4.8923098845
 H      3.4280937126      0.0047501919     -0.1450855254
 H     -0.4986804184      6.2485418526      0.3937562878
 H     -1.3014739913      3.0340323627      0.2009864266
 H      5.5448755607      2.6322535582      0.5099394708
 H      2.1269337792      3.4671591596      0.2926402826
 H      4.2340333291     -0.1851849722      3.4543633182
 H      0.5238823955      6.5821970787      3.6153887753
 H     -2.2025102577      3.7323419902      3.3843686641
 H      5.4302707865      3.6385789870      3.7386626031
 H      1.7899121983      2.9117687824      3.6760484046
 H      1.3203651499      5.7279197870      6.8786620437
 H     -2.3551105421      5.2636895557      7.0265280261
 H      0.4596375167      2.2658292943      6.9506471234
 H      5.4965408112      0.6287645749      7.0651985658
 H      1.5704067169      1.3133898399      6.9690768393
 H      4.2973008158      4.8929532475      7.0514018994
 H      2.1190584152      0.7745476004      3.1913180330
 H      5.8613278374      1.2183131015      3.3922733632
 H      3.4334163884      4.3727523658      3.2506145894
 H     -1.7197910695      5.7619874944      3.3897434021
 H      2.0155336154      5.1207608095      3.3545724290
 H     -0.3053435945      2.1013892147      3.4102255105
 O      2.5813583977      0.0442234295      0.2626021824
 O     -1.3257031229      6.7225836437      0.4762085155
 O     -1.1789057186      2.0860496102      0.4481545194
 O      6.3109634627      2.0876628749      0.4401262130
 O      2.4853391552      4.3711362432      0.2421994757
 O      5.0904833604     -0.0533956328      3.9168069367
 O      1.4487121674      6.5147733807      3.9336533560
 O     -2.4891409347      4.4550198517      3.9892002897
 O      4.8930555041      4.4356189235      4.0306651126
 O      1.2371471159      2.0745584940      3.9143334291
 O      4.9551011300     -0.0153918409      6.6933708702
 O      1.0600515376      6.6210425452      6.6771237657
 O     -2.4736392473      4.3538986610      6.6824155233
 O      5.0190996625      4.3689137671      6.6858568236
 O      1.3612626175      2.1707406278      6.6195571520
 O      2.5557617840     -0.1221514774      3.1413060069
 O     -1.1342106062      6.5226322721      3.0953918726
 O     -1.2561508977      2.1666736560      3.0664068745
 O      6.2551495645      2.1241004109      3.0992201388
 O      2.4808517717      4.2333276634      3.0709773188
 H      5.3362402179     -0.8410330818      6.9606737222
 H      1.8877711580      7.0674105525      6.8683323460
 H     -3.4080479189      4.2288720490      6.7722392337
 H      5.7336168640      4.9878965981      6.5028921147
 H      1.8576211640     -0.8068412958      3.2509418868
 H     -1.6351022792      7.3058379157      3.1444961297
 H     -1.5036308874      1.2263588042      3.1852698212
 H      7.1311173613      2.1653407852      3.4627703148
60
# ORCA AIMD Position Step 31, t=15.50 fs, E_Pot=-1525.76469323 Hartree, Unit is Angstrom
 H      2.7689140182     -0.0127372068      1.1750626136
 H     -1.2166810593      6.9634742668      1.3459351725
 H     -0.9925083561      2.2035112287      1.3943443864
 H      6.4112443803      2.1348586920      1.3922296700
 H      2.4321046835      4.6613065458      1.1587360047
 H      4.8292606716      0.1146635813      4.8433037218
 H      1.3031501652      6.4671531809      4.9050542560
 H     -2.1817571083      4.0760365979      4.8294956589
 H      4.7864399653      4.2764444347      4.9841072052
 H      1.3892728260      2.0533858113      4.8946707856
 H      3.4339373894      0.0098507598     -0.1598291010
 H     -0.5036998921      6.2324965345      0.3977013714
 H     -1.2897722980      3.0437419658      0.1930659395
 H      5.5314075467      2.6178107362      0.5174285710
 H      2.1268359510      3.4526303184      0.2926610650
 H      4.2285033447     -0.1904396572      3.4421221737
 H      0.5297345745      6.5863899299      3.6071019639
 H     -2.2078907282      3.7298888757      3.3774162548
 H      5.4269426442      3.6197032636      3.7267108519
 H      1.7876342818      2.9187209854      3.6679187126
 H      1.3069697588      5.7179791879      6.8779656991
 H     -2.3602381605      5.2756881450      7.0257739854
 H      0.4534213109      2.2699528410      6.9476992012
 H      5.4973254470      0.6278747854      7.0667009814
 H      1.5708700056      1.3046865263      6.9734308868
 H      4.2962867205      4.9101666336      7.0548870104
 H      2.1214355907      0.7712733267      3.1858806401
 H      5.8591680868      1.2112338482      3.3845147905
 H      3.4421936295      4.3695189284      3.2422378105
 H     -1.7255203773      5.7493825537      3.3827439944
 H      2.0244238808      5.1154621546      3.3542650400
 H     -0.3047733009      2.0991779536      3.4150924061
 O      2.5848373642      0.0456867516      0.2581921947
 O     -1.3254360544      6.7275146346      0.4780434773
 O     -1.1767311938      2.0842498222      0.4484140308
 O      6.3087598174      2.0859562503      0.4410387425
 O      2.4824136171      4.3692610424      0.2369023815
 O      5.0905899357     -0.0546748437      3.9149448161
 O      1.4529257924      6.5120786298      3.9316313987
 O     -2.4867190316      4.4563018106      3.9887079023
 O      4.8880448740      4.4372095854      4.0318796857
 O      1.2379962970      2.0719252760      3.9113941127
 O      4.9522935686     -0.0152908246      6.6958750269
 O      1.0544952366      6.6220702497      6.6789682809
 O     -2.4717386217      4.3533951987      6.6848133012
 O      5.0169014460      4.3696697030      6.6886854293
 O      1.3640775252      2.1687590303      6.6193231358
 O      2.5548736761     -0.1253226480      3.1441492746
 O     -1.1308232267      6.5210272450      3.0979855735
 O     -1.2543380988      2.1652675206      3.0677829788
 O      6.2526238854      2.1210345378      3.1017930255
 O      2.4780463271      4.2290690063      3.0719393232
 H      5.3328111600     -0.8504719578      6.9555101409
 H      1.8961747810      7.0615788074      6.8633994289
 H     -3.4156469217      4.2207836931      6.7610599928
 H      5.7440467372      4.9794549366      6.4833192771
 H      1.8454066622     -0.8159733105      3.2398111599
 H     -1.6388921548      7.3075005767      3.1445600859
 H     -1.5022277333      1.2116739590      3.1722088545
 H      7.1387233309      2.1555451696      3.4674086057
60
# ORCA AIMD Position Step 32, t=16.00 fs, E_Pot=-1525.76766212 Hartree, Unit is Angstrom
 H      2.7689122322     -0.0145895488      1.1744044958
 H     -1.2187414829      6.9635493602      1.3444876086
 H     -0.9847995140      2.1920663239      1.4054642092
 H      6.4179239175      2.1269922936      1.3905088611
 H      2.4388174822      4.6680497845      1.1567307862
 H      4.8251061832      0.1115899603      4.8475667428
 H      1.3023033706      6.4687459693      4.9103094281
 H     -2.1706597697      4.0734440535      4.8334666670
 H      4.7762552307      4.2630142491      4.9922922425
 H      1.3862769797      2.0590509253      4.8968380874
 H      3.4429891282      0.0150736607     -0.1758987858
 H     -0.5072587753      6.2152000400      0.4002575220
 H     -1.2778985708      3.0510344473      0.1852040877
 H      5.5134450083      2.6061311003      0.5224187450
 H      2.1270255105      3.4389372671      0.2927601268
 H      4.2226607248     -0.1956230689      3.4303469848
 H      0.5340000416      6.5907014181      3.5978914667
 H     -2.2135286685      3.7271999531      3.3702709221
 H      5.4220621136      3.6027429768      3.7150741515
 H      1.7848153318      2.9260102826      3.6583756058
 H      1.2933682549      5.7054512292      6.8776615009
 H     -2.3653025589      5.2863173486      7.0241399386
 H      0.4464253805      2.2748349137      6.9444307954
 H      5.5026246362      0.6322950934      7.0711935879
 H      1.5728742921      1.2935855100      6.9785263495
 H      4.2955569022      4.9279104345      7.0583417472
 H      2.1226983215      0.7680855518      3.1814790718
 H      5.8566946759      1.2045186231      3.3767986201
 H      3.4522866100      4.3663512362      3.2349079091
 H     -1.7310770820      5.7368741862      3.3761686745
 H      2.0344060519      5.1087601845      3.3539954742
 H     -0.3037685979      2.0984429104      3.4199826689
 O      2.5880567812      0.0471884877      0.2535325500
 O     -1.3252655017      6.7323186882      0.4792360568
 O     -1.1745736717      2.0826409995      0.4484997142
 O      6.3066470826      2.0841636013      0.4418108541
 O      2.4794631688      4.3673217097      0.2314881829
 O      5.0907578217     -0.0559542612      3.9130266748
 O      1.4572103529      6.5093721886      3.9296415588
 O     -2.4843070323      4.4575527009      3.9880737301
 O      4.8832152924      4.4386735255      4.0329136429
 O      1.2389404644      2.0693454733      3.9084750342
 O      4.9491114344     -0.0153642748      6.6981668108
 O      1.0489064302      6.6231426048      6.6808149756
 O     -2.4696631381      4.3529817596      6.6872980415
 O      5.0146950304      4.3703372735      6.6915729114
 O      1.3668524649      2.1668887159      6.6190928885
 O      2.5539499064     -0.1286361204      3.1469614142
 O     -1.1272462045      6.5192068553      3.1006170666
 O     -1.2524985553      2.1637001128      3.0692948722
 O      6.2499860879      2.1179983898      3.1044093508
 O      2.4750328910      4.2248651917      3.0728905759
 H      5.3304952214     -0.8621021970      6.9507978051
 H      1.9053166377      7.0572738280      6.8585110481
 H     -3.4256638247      4.2122565171      6.7497809699
 H      5.7545536473      4.9718862700      6.4638173929
 H      1.8346960436     -0.8229698307      3.2281728185
 H     -1.6456235844      7.3129387844      3.1455050908
 H     -1.5016169726      1.1987101837      3.1583058991
 H      7.1481319310      2.1455185496      3.4726270869
60
# ORCA AIMD Position Step 33, t=16.50 fs, E_Pot=-1525.77015303 Hartree, Unit is Angstrom
 H      2.7699749590     -0.0169055729      1.1785455515
 H     -1.2203586325      6.9663124159      1.3537800327
 H     -0.9773372512      2.1802935029      1.4165678073
 H      6.4271685920      2.1177569725      1.3925195738
 H      2.4455071902      4.6740295313      1.1558551938
 H      4.8211216446      0.1081685804      4.8518054510
 H      1.3015639438      6.4706297129      4.9145682708
 H     -2.1597399830      4.0720929476      4.8383364100
 H      4.7654967326      4.2492361830      5.0006286008
 H      1.3825945972      2.0642505164      4.8984061627
 H      3.4540412858      0.0204622028     -0.1925175221
 H     -0.5102332775      6.1972156895      0.4015928045
 H     -1.2657375692      3.0550436696      0.1778810726
 H      5.4919316037      2.5965261018      0.5250089007
 H      2.1278524348      3.4271106998      0.2929869705
 H      4.2173084755     -0.2005942398      3.4196236109
 H      0.5369580589      6.5950696794      3.5879513800
 H     -2.2195161225      3.7245862700      3.3633001425
 H      5.4150843197      3.5886856427      3.7042319842
 H      1.7813164997      2.9332874741      3.6475927774
 H      1.2793241335      5.6916048728      6.8775016213
 H     -2.3704936104      5.2947963511      7.0213680043
 H      0.4396276393      2.2802431751      6.9405647656
 H      5.5116471209      0.6408760216      7.0781073089
 H      1.5760108500      1.2812666909      6.9839118522
 H      4.2959171397      4.9457044815      7.0613566661
 H      2.1227661127      0.7651238465      3.1781628307
 H      5.8538748175      1.1981267217      3.3692570763
 H      3.4627225706      4.3630584628      3.2285848016
 H     -1.7359732611      5.7250953954      3.3699154968
 H      2.0451100021      5.1011216864      3.3539153993
 H     -0.3022716224      2.0990973900      3.4249288982
 O      2.5910894634      0.0487257148      0.2486113833
 O     -1.3251456562      6.7369520183      0.4797309797
 O     -1.1724239268      2.0812704019      0.4484575862
 O      6.3045695061      2.0823202825      0.4424285720
 O      2.4764669158      4.3652724727      0.2259919806
 O      5.0909271874     -0.0572374955      3.9110587578
 O      1.4615460466      6.5066565486      3.9277252563
 O     -2.4818843075      4.4587304265      3.9873246746
 O      4.8785979252      4.4399349733      4.0338014712
 O      1.2399886101      2.0668408868      3.9055910534
 O      4.9456270197     -0.0156070260      6.7002965861
 O      1.0433575955      6.6242183722      6.6826894239
 O     -2.4674959350      4.3526861563      6.6898897883
 O      5.0124849815      4.3709823011      6.6945264453
 O      1.3695504054      2.1650713483      6.6189110481
 O      2.5529579111     -0.1321356393      3.1497406218
 O     -1.1235640855      6.5172220096      3.1032989146
 O     -1.2506549101      2.1619142608      3.0709413454
 O      6.2473224015      2.1150002951      3.1070971054
 O      2.4718945350      4.2206976348      3.0738268114
 H      5.3289273693     -0.8748648702      6.9462796546
 H      1.9142935906      7.0538851574      6.8534968281
 H     -3.4365750444      4.2036182242      6.7383109846
 H      5.7642634003      4.9646202873      6.4446466338
 H      1.8260874423     -0.8272697954      3.2160011911
 H     -1.6544127640      7.3207321572      3.1472346550
 H     -1.5014774568      1.1884270819      3.1435552169
 H      7.1579624407      2.1352189608      3.4778874617
60
# ORCA AIMD Position Step 34, t=17.00 fs, E_Pot=-1525.77058839 Hartree, Unit is Angstrom
 H      2.7720422756     -0.0196202208      1.1862225149
 H     -1.2215538465      6.9712799840      1.3724426452
 H     -0.9703656875      2.1683604630      1.4265192563
 H      6.4387177413      2.1073352147      1.3978313452
 H      2.4521266274      4.6789094267      1.1554178579
 H      4.8174540965      0.1043194336      4.8553784367
 H      1.3009545449      6.4728198621      4.9171555517
 H     -2.1492624210      4.0723049473      4.8432957993
 H      4.7542655671      4.2353096125      5.0080856733
 H      1.3782679271      2.0689784890      4.8990383942
 H      3.4657658631      0.0260512639     -0.2088144496
 H     -0.5135382635      6.1792097810      0.4019399334
 H     -1.2532289297      3.0552482514      0.1714705453
 H      5.4682877340      2.5880702174      0.5253540217
 H      2.1295632117      3.4179277241      0.2933747413
 H      4.2131216795     -0.2052316577      3.4104567181
 H      0.5390444958      6.5994148028      3.5775414351
 H     -2.2259171571      3.7223226945      3.3568584562
 H      5.4056970213      3.5782145222      3.6945501857
 H      1.7770358547      2.9402321561      3.6357624265
 H      1.2646355329      5.6777823172      6.8772380882
 H     -2.3759502211      5.3006040459      7.0173027724
 H      0.4339201251      2.2859284531      6.9358771401
 H      5.5230903868      0.6518733095      7.0865387638
 H      1.5798448175      1.2689916249      6.9891043870
 H      4.2980387056      4.9631059509      7.0635807028
 H      2.1216181471      0.7624642642      3.1759724873
 H      5.8506835866      1.1920186495      3.3620171996
 H      3.4725708937      4.3594543194      3.2232503170
 H     -1.7398083669      5.7145590208      3.3639282630
 H      2.0561179124      5.0931166755      3.3542050749
 H     -0.3002608765      2.1010229732      3.4299502541
 O      2.5940235534      0.0502927420      0.2434547603
 O     -1.3250166074      6.7414030157      0.4795996525
 O     -1.1702703298      2.0801626136      0.4483356412
 O      6.3024524565      2.0804744011      0.4429090083
 O      2.4734106264      4.3630845369      0.2204556023
 O      5.0910461055     -0.0585278208      3.9090494645
 O      1.4659044890      6.5039361595      3.9259114798
 O     -2.4794312666      4.4597968895      3.9864878469
 O      4.8742087468      4.4409354045      4.0345831197
 O      1.2411462851      2.0644313111      3.9027519895
 O      4.9419458889     -0.0159826482      6.7023354041
 O      1.0379185249      6.6252510535      6.6846155913
 O     -2.4653243103      4.3525192459      6.6925994354
 O      5.0102811014      4.3716650743      6.6975477422
 O      1.3721412471      2.1632444792      6.6188207582
 O      2.5518763149     -0.1358437082      3.1524828238
 O     -1.1198679838      6.5151460652      3.1060422326
 O     -1.2488241485      2.1598716950      3.0727178725
 O      6.2447155061      2.1120465855      3.1098826253
 O      2.4687148024      4.2165410056      3.0747403534
 H      5.3277236334     -0.8876028276      6.9417028246
 H      1.9222111950      7.0508135500      6.8482120410
 H     -3.4468413284      4.1952073314      6.7265988306
 H      5.7723510769      4.9571352233      6.4260871659
 H      1.8199382273     -0.8285811713      3.2033174434
 H     -1.6642018569      7.3292303184      3.1496665803
 H     -1.5015441350      1.1815062737      3.1280139404
 H      7.1668919460      2.1246284781      3.4826885322
60
# ORCA AIMD Position Step 35, t=17.50 fs, E_Pot=-1525.76843021 Hartree, Unit is Angstrom
 H      2.7749742243     -0.0226273719      1.1957653271
 H     -1.2224696404      6.9775254367      1.3975344698
 H     -0.9640897398      2.1564529525      1.4343633102
 H      6.4521415770      2.0959395559      1.4055444514
 H      2.4586269373      4.6823763556      1.1547273856
 H      4.8142391716      0.0999864622      4.8577507434
 H      1.3004800812      6.4753188371      4.9175841527
 H     -2.1394671794      4.0743402890      4.8476307849
 H      4.7426618312      4.2214496448      5.0137719175
 H      1.3733648148      2.0732348840      4.8984925281
 H      3.4769213002      0.0318597151     -0.2239516984
 H     -0.5180010689      6.1618592579      0.4015632939
 H     -1.2403580799      3.0514795941      0.1662263863
 H      5.4441317938      2.5797968495      0.5236664677
 H      2.1322937543      3.4118723913      0.2939422065
 H      4.2106103115     -0.2094425125      3.4032380442
 H      0.5407900852      6.6036431891      3.5669601992
 H     -2.2327608170      3.7206216604      3.3512567726
 H      5.3937810523      3.5717516154      3.6862883131
 H      1.7719131401      2.9465633636      3.6230893932
 H      1.2491653686      5.6652278853      6.8766550545
 H     -2.3817589748      5.3035004642      7.0118929305
 H      0.4300264173      2.2916477046      6.9302188514
 H      5.5354724675      0.6633717144      7.0954799989
 H      1.5839646610      1.2579301734      6.9936574078
 H      4.3024093000      4.9797522496      7.0647480378
 H      2.1192976405      0.7601076615      3.1749407149
 H      5.8471093437      1.1861706815      3.3551929118
 H      3.4810192300      4.3553715814      3.2189075535
 H     -1.7422787093      5.7056419474      3.3581909843
 H      2.0669907996      5.0853804723      3.3550617131
 H     -0.2977586952      2.1040741597      3.4350464395
 O      2.5969467802      0.0518823403      0.2381165385
 O     -1.3248159992      6.7456865248      0.4790083602
 O     -1.1681008204      2.0793190521      0.4481783735
 O      6.3002189380      2.0786748368      0.4432947696
 O      2.4702873343      4.3607461987      0.2149217952
 O      5.0910737998     -0.0598283556      3.9070077099
 O      1.4702527888      6.5012170735      3.9242152844
 O     -2.4769316720      4.4607219851      3.9855873473
 O      4.8700516595      4.4416324278      4.0352972771
 O      1.2424152692      2.0621338554      3.8999615462
 O      4.9381826976     -0.0164401332      6.7043582872
 O      1.0326477410      6.6261958039      6.6866126850
 O     -2.4632277057      4.3524761091      6.6954283343
 O      5.0080960977      4.3724342761      6.7006335005
 O      1.3746038988      2.1613509653      6.6188580057
 O      2.5506953690     -0.1397608006      3.1551824616
 O     -1.1162432899      6.5130573761      3.1088558835
 O     -1.2470167679      2.1575546306      3.0746176449
 O      6.2422353367      2.1091404037      3.1127872619
 O      2.4655710858      4.2123649151      3.0756204921
 H      5.3265342730     -0.8992203462      6.9368548525
 H      1.9282892481      7.0475327248      6.8425542554
 H     -3.4551008351      4.1873345338      6.7146384307
 H      5.7781267304      4.9490115692      6.4084054402
 H      1.8163538613     -0.8268837901      3.1901752051
 H     -1.6739442087      7.3368460277      3.1527432354
 H     -1.5016172167      1.1783224066      3.1117887856
 H      7.1737999472      2.1137554301      3.4866223488
60
# ORCA AIMD Position Step 36, t=18.00 fs, E_Pot=-1525.76474800 Hartree, Unit is Angstrom
 H      2.7785972248     -0.0257983071      1.2054123886
 H     -1.2232735102      6.9839710855      1.4255191685
 H     -0.9586606910      2.1447681816      1.4393826831
 H      6.4668810807      2.0838068698      1.4144686716
 H      2.4649585225      4.6841737615      1.1531679953
 H      4.8115879967      0.0951433104      4.8585313284
 H      1.3001260115      6.4781168986      4.9155829481
 H     -2.1305466022      4.0783713091      4.8507766548
 H      4.7307779059      4.2078670298      5.0169958660
 H      1.3679776890      2.0770264734      4.8966361182
 H      3.4864850698      0.0378886290     -0.2372150087
 H     -0.5242790122      6.1457738563      0.4007258826
 H     -1.2271458250      3.0439217652      0.1622746924
 H      5.4210335893      2.5708463153      0.5202108495
 H      2.1360712357      3.4091210506      0.2946969538
 H      4.2101026926     -0.2131680948      3.3982289719
 H      0.5427534917      6.6076541730      3.5565149309
 H     -2.2400382926      3.7196149644      3.3467398591
 H      5.3793759643      3.5694939943      3.6796067341
 H      1.7659303289      2.9520445240      3.6097863868
 H      1.2328526719      5.6549734302      6.8755877194
 H     -2.3879573302      5.3035321845      7.0051868550
 H      0.4284519634      2.2971821220      6.9235249470
 H      5.5474014305      0.6736179239      7.1039992283
 H      1.5880144954      1.2490450463      6.9972069588
 H      4.3093110112      4.9953898943      7.0646920419
 H      2.1159099599      0.7579795907      3.1750929119
 H      5.8431578077      1.1805865613      3.3488791643
 H      3.4874112814      4.3506702171      3.2155724313
 H     -1.7431758344      5.6985863538      3.3527181783
 H      2.0773019725      5.0785554415      3.3566814226
 H     -0.2948347484      2.1080820681      3.4401938992
 O      2.5999351784      0.0534870112      0.2326642172
 O     -1.3244903691      6.7498305560      0.4781596345
 O     -1.1659043767      2.0787182862      0.4480237521
 O      6.2978027068      2.0769622419      0.4436433061
 O      2.4670971423      4.3582617346      0.2094292510
 O      5.0909823306     -0.0611422052      3.9049416307
 O      1.4745578529      6.4985063402      3.9226378141
 O     -2.4743741955      4.4614861779      3.9846423994
 O      4.8661210963      4.4419988766      4.0359773585
 O      1.2437936038      2.0599625423      3.8972167445
 O      4.9344421683     -0.0169277772      6.7064317103
 O      1.0275872957      6.6270143286      6.6886934982
 O     -2.4612703902      4.3525375040      6.6983690704
 O      5.0059435875      4.3733235349      6.7037764499
 O      1.3769273869      2.1593450354      6.6190481458
 O      2.5494173374     -0.1438658980      3.1578333836
 O     -1.1127616274      6.5110271930      3.1117461626
 O     -1.2452364147      2.1549662785      3.0766327186
 O      6.2399338798      2.1062811205      3.1158256090
 O      2.4625299260      4.2081372465      3.0764547266
 H      5.3250773156     -0.9087963022      6.9315827602
 H      1.9319319673      7.0436263286      6.8364698491
 H     -3.4602829843      4.1802556011      6.7024620822
 H      5.7810889667      4.9399586355      6.3918257608
 H      1.8151842566     -0.8224231911      3.1766450036
 H     -1.6827309392      7.3422455811      3.1564328986
 H     -1.5015672153      1.1789323315      3.0950198163
 H      7.1778500004      2.1026307450      3.4894032270
60
# ORCA AIMD Position Step 37, t=18.50 fs, E_Pot=-1525.76155176 Hartree, Unit is Angstrom
 H      2.7827390052     -0.0289993639      1.2135560632
 H     -1.2240915904      6.9896237188      1.4530833557
 H     -0.9541684594      2.1335054699      1.4411238349
 H      6.4823003825      2.0711909850      1.4233263333
 H      2.4710741767      4.6841266383      1.1502550272
 H      4.8095782114      0.0897951889      4.8574930896
 H      1.2998573590      6.4811942009      4.9111088165
 H     -2.1226303554      4.0844685833      4.8523474311
 H      4.7186937666      4.1947525246      5.0172916618
 H      1.3622208793      2.0803676391      4.8934521872
 H      3.4937183725      0.0441234542     -0.2480645483
 H     -0.5328179348      6.1314413020      0.3996627051
 H     -1.2136378172      3.0331098441      0.1596083507
 H      5.4003455070      2.5605475068      0.5152912427
 H      2.1408196182      3.4095405134      0.2956395751
 H      4.2117396197     -0.2163869316      3.3955523092
 H      0.5454601863      6.6113473712      3.5464929440
 H     -2.2477035707      3.7193439913      3.3434725301
 H      5.3626569400      3.5714338940      3.6745689474
 H      1.7591089410      2.9564834552      3.5960705542
 H      1.2157107499      5.6477745244      6.8739304620
 H     -2.3945394523      5.3010273775      6.9973245419
 H      0.4294589472      2.3023502173      6.9158154221
 H      5.5577267633      0.6812012299      7.1113389689
 H      1.5917118705      1.2430287365      6.9994972754
 H      4.3188158832      5.0098931126      7.0633503875
 H      2.1116149695      0.7559411392      3.1764473373
 H      5.8388542492      1.1753047141      3.3431488735
 H      3.4912581567      4.3452409920      3.2132626704
 H     -1.7423779680      5.6935118718      3.3475443922
 H      2.0866744294      5.0732149027      3.3592352396
 H     -0.2916031617      2.1128570157      3.4453448804
 O      2.6030468397      0.0550999815      0.2271666608
 O     -1.3240020396      6.7538651829      0.4772432227
 O     -1.1636720768      2.0783166020      0.4479019452
 O      6.2951557029      2.0753643016      0.4440152108
 O      2.4638466416      4.3556499965      0.2040088445
 O      5.0907573411     -0.0624724918      3.9028578030
 O      1.4787902474      6.4958112991      3.9211672010
 O     -2.4717533188      4.4620817293      3.9836665117
 O      4.8624037764      4.4420225308      4.0366499017
 O      1.2452758403      2.0579281767      3.8945078440
 O      4.9308085565     -0.0174004573      6.7086071264
 O      1.0227602757      6.6276777746      6.6908638738
 O     -2.4594978551      4.3526712948      6.7014068420
 O      5.0038365676      4.3743497865      6.7069666494
 O      1.3791113509      2.1571953837      6.6194042732
 O      2.5480568707     -0.1481181910      3.1604297725
 O     -1.1094770408      6.5091132936      3.1147167983
 O     -1.2434799377      2.1521309120      3.0787551138
 O      6.2378428320      2.1034642863      3.1190047708
 O      2.4596437553      4.2038289149      3.0772305596
 H      5.3231553803     -0.9156495676      6.9257990377
 H      1.9327683850      7.0388057217      6.8299537723
 H     -3.4616607568      4.1741547239      6.6901282474
 H      5.7809539237      4.9298229191      6.3765081200
 H      1.8160266350     -0.8156968951      3.1627985682
 H     -1.6898551913      7.3444372448      3.1607253946
 H     -1.5013383589      1.1830725537      3.0778632941
 H      7.1785264614      2.0913014812      3.4908778300
60
# ORCA AIMD Position Step 38, t=19.00 fs, E_Pot=-1525.76059802 Hartree, Unit is Angstrom
 H      2.7872488833     -0.0321052966      1.2188857362
 H     -1.2249888413      6.9936934680      1.4775539731
 H     -0.9506379223      2.1228562748      1.4394080594
 H      6.4977412986      2.0583527243      1.4309255714
 H      2.4769346373      4.6821574018      1.1456711160
 H      4.8082479307      0.0839786647      4.8545835049
 H      1.2996168730      6.4845241232      4.9043501777
 H     -2.1157754198      4.0925966178      4.8521492299
 H      4.7064720905      4.1822626075      5.0144271764
 H      1.3562262973      2.0832820592      4.8890407790
 H      3.4981874639      0.0505386848     -0.2561571047
 H     -0.5438385509      6.1191890544      0.3985631451
 H     -1.1998918538      3.0199233304      0.1580830120
 H      5.3831109080      2.5484439042      0.5092359141
 H      2.1463677693      3.4126927165      0.2967691282
 H      4.2154701871     -0.2191163777      3.3951872911
 H      0.5493545027      6.6146304446      3.5371371691
 H     -2.2556766894      3.7197539650      3.3415317318
 H      5.3439255669      3.5773535253      3.6711335218
 H      1.7515064789      2.9597323638      3.5821588124
 H      1.1978169111      5.6440827183      6.8716378130
 H     -2.4014637671      5.2965810992      6.9885248535
 H      0.4330572939      2.3070177777      6.9071901012
 H      5.5655927348      0.6851087988      7.1169466185
 H      1.5948553697      1.2402773137      7.0003919589
 H      4.3307941255      5.0232756690      7.0607642536
 H      2.1066143621      0.7538092866      3.1790141410
 H      5.8342434280      1.1704011233      3.3380510826
 H      3.4922314722      4.3390050668      3.2119862143
 H     -1.7398428684      5.6904266079      3.3427158362
 H      2.0948162719      5.0697811986      3.3628425347
 H     -0.2882188593      2.1181913949      3.4504285554
 O      2.6063192941      0.0567157789      0.2216864447
 O     -1.3233313816      6.7578178485      0.4764116779
 O     -1.1613980815      2.0780489223      0.4478348679
 O      6.2922505127      2.0738946737      0.4444645273
 O      2.4605480369      4.3529431630      0.1986810207
 O      5.0903985061     -0.0638223288      3.9007608787
 O      1.4829272287      6.4931388835      3.9197797698
 O     -2.4690697716      4.4625130955      3.9826672480
 O      4.8588797214      4.4417072463      4.0373346776
 O      1.2468535412      2.0560381838      3.8918186073
 O      4.9273419441     -0.0178211233      6.7109192532
 O      1.0181701787      6.6281681538      6.6931229257
 O     -2.4579354232      4.3528340011      6.7045213240
 O      5.0017862338      4.3755128790      6.7101928679
 O      1.3811661414      2.1548861632      6.6199268483
 O      2.5466411999     -0.1524599328      3.1629673461
 O     -1.1064246591      6.5073576441      3.1177690645
 O     -1.2417376378      2.1490934295      3.0809779842
 O      6.2359728917      2.1006821813      3.1223242482
 O      2.4569488676      4.1994191047      3.0779376024
 H      5.3206622172     -0.9193708316      6.9194788873
 H      1.9306724068      7.0329146908      6.8230444184
 H     -3.4588657906      4.1691353230      6.6777059916
 H      5.7776662833      4.9185835123      6.3625298487
 H      1.8182371366     -0.8074313181      3.1486905444
 H     -1.6948352256      7.3427938752      3.1656252552
 H     -1.5009505222      1.1901658183      3.0604713981
 H      7.1756459608      2.0798224046      3.4910249327
60
# ORCA AIMD Position Step 39, t=19.50 fs, E_Pot=-1525.76255171 Hartree, Unit is Angstrom
 H      2.7920062424     -0.0350078395      1.2204480967
 H     -1.2259801258      6.9956211123      1.4969886466
 H     -0.9480270783      2.1129945231      1.4343354291
 H      6.5125700055      2.0455482334      1.4362745210
 H      2.4825144771      4.6782942179      1.1392880739
 H      4.8075934712      0.0777587395      4.8499235843
 H      1.2993240014      6.4880774234      4.8957182779
 H     -2.1099606665      4.1026171234      4.8501829950
 H      4.6941527420      4.1705090302      5.0083968201
 H      1.3501379296      2.0858039974      4.8836111264
 H      3.4997638523      0.0571031521     -0.2613520492
 H     -0.5573408610      6.1091616120      0.3975618275
 H     -1.1859636978      3.0055567276      0.1574206319
 H      5.3700265451      2.5342889165      0.5023824520
 H      2.1524605711      3.4178500920      0.2980884512
 H      4.2210487790     -0.2214139257      3.3969680905
 H      0.5547655475      6.6174254275      3.5286274361
 H     -2.2638495581      3.7206957951      3.3409065511
 H      5.3236097134      3.5868052478      3.6691387758
 H      1.7432113365      2.9616863767      3.5682634482
 H      1.1792998382      5.6440335130      6.8687220491
 H     -2.4086621338      5.2910217956      6.9790665368
 H      0.4390054349      2.3111051833      6.8978203204
 H      5.5704394327      0.6847165964      7.1204699130
 H      1.5973280575      1.2408806095      6.9998783571
 H      4.3449299075      5.0356972815      7.0570731092
 H      2.1011375238      0.7513785965      3.1827942405
 H      5.8293865014      1.1659852684      3.3336119434
 H      3.4901550477      4.3319129654      3.2117339752
 H     -1.7355980416      5.6892405236      3.3382835531
 H      2.1015471674      5.0684540503      3.3675469845
 H     -0.2848684344      2.1238625280      3.4553545621
 O      2.6097689260      0.0583304333      0.2162764206
 O     -1.3224759815      6.7617134324      0.4757757907
 O     -1.1590806323      2.0778311686      0.4478356340
 O      6.2890799897      2.0725539985      0.4450326471
 O      2.4572180688      4.3501852883      0.1934541435
 O      5.0899197395     -0.0651945346      3.8986537296
 O      1.4869547974      6.4904949962      3.9184416469
 O     -2.4663306213      4.4627964176      3.9816461599
 O      4.8555226920      4.4410747187      4.0380460363
 O      1.2485158195      2.0542965831      3.8891271216
 O      4.9240781721     -0.0181595529      6.7133868530
 O      1.0138011547      6.6284791728      6.6954636311
 O     -2.4565875472      4.3529733055      6.7076889572
 O      4.9998008392      4.3767957379      6.7134442065
 O      1.3831125647      2.1524171484      6.6206039741
 O      2.5452088192     -0.1568209004      3.1654444891
 O     -1.1036208007      6.5057859345      3.1209019607
 O     -1.2399939587      2.1459180662      3.0832967615
 O      6.2343136324      2.0979248051      3.1257759422
 O      2.4544641851      4.1948999244      3.0785693798
 H      5.3175837424     -0.9198331448      6.9126531607
 H      1.9257722782      7.0259279657      6.8158163977
 H     -3.4518909754      4.1652137246      6.6652588122
 H      5.7714026885      4.9063437109      6.3498686174
 H      1.8209686684     -0.7985343048      3.1343408166
 H     -1.6974163834      7.3370441519      3.1711456445
 H     -1.5004986110      1.1993414136      3.0429709824
 H      7.1693610722      2.0682474151      3.4899519310
60
# ORCA AIMD Position Step 40, t=20.00 fs, E_Pot=-1525.76681464 Hartree, Unit is Angstrom
 H      2.7969189492     -0.0376199102      1.2176563262
 H     -1.2270541280      6.9950624834      1.5100952820
 H     -0.9462258307      2.1040705316      1.4262961527
 H      6.5262094540      2.0330200947      1.4386378098
 H      2.4878037088      4.6726749231      1.1311792147
 H      4.8075697545      0.0712260535      4.8438018127
 H      1.2988766110      6.4918240255      4.8858229620
 H     -2.1050869400      4.1142937494      4.8466419965
 H      4.6817497134      4.1595548864      4.9994175143
 H      1.3441070849      2.0879765769      4.8774592962
 H      3.4986146347      0.0637826370     -0.2637075471
 H     -0.5731155144      6.1013194444      0.3967353121
 H     -1.1718973829      2.9914482345      0.1572328742
 H      5.3614357393      2.5180362892      0.4950657102
 H      2.1587734383      3.4240350625      0.2996066642
 H      4.2280343535     -0.2233784464      3.4005866245
 H      0.5618805856      6.6196729590      3.5210682769
 H     -2.2720888488      3.7219349944      3.3415041795
 H      5.3022725264      3.5990805878      3.6682873523
 H      1.7343367498      2.9622748013      3.5545936205
 H      1.1603306132      5.6474404009      6.8652514574
 H     -2.4160491910      5.2853450174      6.9692647188
 H      0.4468228329      2.3145890325      6.8879405551
 H      5.5719845752      0.6797641580      7.1217430430
 H      1.5990997585      1.2446168574      6.9980696352
 H      4.3607433213      5.0474564744      7.0525046503
 H      2.0954217503      0.7484534107      3.1877786035
 H      5.8243558508      1.1621894774      3.3298405603
 H      3.4850084788      4.3239455699      3.2124790912
 H     -1.7297307899      5.6897797654      3.3343011296
 H      2.1068026736      5.0691768375      3.3733031583
 H     -0.2817485770      2.1296333191      3.4600199946
 O      2.6133916205      0.0599414862      0.2109788780
 O     -1.3214484897      6.7655755153      0.4754101512
 O     -1.1567228321      2.0775650763      0.4479063088
 O      6.2856558898      2.0713311131      0.4457455184
 O      2.4538769871      4.3474295804      0.1883236864
 O      5.0893491256     -0.0665914614      3.8965377537
 O      1.4908691125      6.4878840905      3.9171109926
 O     -2.4635493340      4.4629584614      3.9805986835
 O      4.8522998150      4.4401664902      4.0387940209
 O      1.2502497358      2.0527044096      3.8864071349
 O      4.9210303135     -0.0183910545      6.7160139556
 O      1.0096187535      6.6286168565      6.6978731836
 O     -2.4554369787      4.3530325082      6.7108850725
 O      4.9978843672      4.3781651996      6.7167113797
 O      1.3849809892      2.1498040118      6.6214118943
 O      2.5438055689     -0.1611257175      3.1678625841
 O     -1.1010634913      6.5044075290      3.1241122606
 O     -1.2382293160      2.1426851392      3.0857094033
 O      6.2328337974      2.0951811310      3.1293440535
 O      2.4521910459      4.1902789091      3.0791240724
 H      5.3139939702     -0.9171861826      6.9054025799
 H      1.9184486319      7.0179469660      6.8083765729
 H     -3.4410950521      4.1623144795      6.6528349888
 H      5.7625713837      4.8933252855      6.3383945377
 H      1.8232532711     -0.7900092893      3.1197293341
 H     -1.6975671313      7.3272594631      3.1773027644
 H     -1.5001418529      1.2094871560      3.0254534754
 H      7.1601574171      2.0566235555      3.4878895194
60
# ORCA AIMD Position Step 41, t=20.50 fs, E_Pot=-1525.77190695 Hartree, Unit is Angstrom
 H      2.8019253343     -0.0398806105      1.2102857056
 H     -1.2281899362      6.9918588878      1.5161318690
 H     -0.9450561813      2.0962039989      1.4159681774
 H      6.5381674363      2.0209859913      1.4375610416
 H      2.4928150819      4.6655412720      1.1216195712
 H      4.8080941785      0.0644910398      4.8366561813
 H      1.2981533801      6.4957387554      4.8754304057
 H     -2.1009777697      4.1273087896      4.8418989717
 H      4.6692416203      4.1494018119      4.9879200021
 H      1.3382849930      2.0898531284      4.8709490842
 H      3.4952001164      0.0705475631     -0.2634802241
 H     -0.5907631039      6.0954247022      0.3961008262
 H     -1.1577073775      2.9791325465      0.1570632273
 H      5.3573161014      2.4998179705      0.4876095772
 H      2.1649416762      3.4300905244      0.3013403849
 H      4.2357962885     -0.2251484246      3.4056001250
 H      0.5707358604      6.6213374131      3.5144799827
 H     -2.2802479116      3.7231657889      3.3431630561
 H      5.2806184068      3.6131707157      3.6681185860
 H      1.7250167603      2.9614657642      3.5413464268
 H      1.1411068686      5.6537931866      6.8613448541
 H     -2.4235346367      5.2806131184      6.9594325090
 H      0.4558148990      2.3175050011      6.8778315212
 H      5.5702194868      0.6703341722      7.1207771875
 H      1.6002269997      1.2509544606      6.9952046904
 H      4.3776318474      5.0589770030      7.0473566301
 H      2.0896995978      0.7448631482      3.1939467491
 H      5.8192283095      1.1591584435      3.3267299224
 H      3.4769244688      4.3151114230      3.2141770213
 H     -1.7223862160      5.6917861243      3.3308228379
 H      2.1106269520      5.0716425846      3.3799763309
 H     -0.2790524871      2.1352579678      3.4643170678
 O      2.6171627405      0.0615478486      0.2058257767
 O     -1.3202745360      6.7694294429      0.4753598631
 O     -1.1543337811      2.0771478544      0.4480353075
 O      6.2820080559      2.0702051198      0.4466126567
 O      2.4505462622      4.3447343245      0.1832721703
 O      5.0887282935     -0.0680146193      3.8944135147
 O      1.4946767858      6.4853086503      3.9157411418
 O     -2.4607450807      4.4630347963      3.9795140938
 O      4.8491719762      4.4390470463      4.0395864821
 O      1.2520409028      2.0512593900      3.8836298082
 O      4.9181890244     -0.0184952707      6.7187912551
 O      1.0055714357      6.6286003458      6.7003341487
 O     -2.4544441673      4.3529569374      6.7140876752
 O      4.9960350638      4.3795741713      6.7199887737
 O      1.3868097584      2.1470780768      6.6223160357
 O      2.5424777280     -0.1653025472      3.1702266118
 O     -1.0987320823      6.5032155736      3.1273944355
 O     -1.2364221997      2.1394850455      3.0882172755
 O      6.2314822505      2.0924408504      3.1330055895
 O      2.4501137989      4.1855785790      3.0796047817
 H      5.3100537383     -0.9118549928      6.8978455163
 H      1.9093277568      7.0091885487      6.8008518922
 H     -3.4271993334      4.1602676254      6.6404461914
 H      5.7517950158      4.8798476308      6.3278559727
 H      1.8241282455     -0.7828340371      3.1047875104
 H     -1.6954834849      7.3138465288      3.1841145278
 H     -1.5000847259      1.2193425880      3.0079541892
 H      7.1488409544      2.0449802497      3.4851824645
60
# ORCA AIMD Position Step 42, t=21.00 fs, E_Pot=-1525.77610502 Hartree, Unit is Angstrom
 H      2.8069936883     -0.0417593772      1.1984688185
 H     -1.2293697889      6.9860151204      1.5148282737
 H     -0.9442759294      2.0894826126      1.4043083656
 H      6.5480552728      2.0096304520      1.4328725587
 H      2.4975855908      4.6572273428      1.1110749505
 H      4.8090538493      0.0576776889      4.8290463713
 H      1.2970223249      6.4998034817      4.8653933269
 H     -2.0973876233      4.1412816430      4.8364843590
 H      4.6565662776      4.1399846771      4.9745371424
 H      1.3328168011      2.0914950716      4.8644770265
 H      3.4902616736      0.0773780089     -0.2611171869
 H     -0.6097198407      6.0910484506      0.3956165571
 H     -1.1433727158      2.9700184249      0.1564637982
 H      5.3572672376      2.4799331499      0.4803191152
 H      2.1706002086      3.4348029361      0.3033071797
 H      4.2435397630     -0.2268972391      3.4114532301
 H      0.5812095969      6.6224096720      3.5087949237
 H     -2.2881737660      3.7240321102      3.3456718819
 H      5.2594841533      3.6277606691      3.6680010019
 H      1.7154018607      2.9592653058      3.5287033294
 H      1.1218403890      5.6622662862      6.8571661860
 H     -2.4310341717      5.2778111650      6.9498400598
 H      0.4651230157      2.3199415382      6.8678008258
 H      5.5654178491      0.6568528836      7.1177620530
 H      1.6008508200      1.2590617635      6.9916443047
 H      4.3949255926      5.0707690869      7.0419692127
 H      2.0841829331      0.7404829513      3.2012664894
 H      5.8140761247      1.1570309597      3.3242629312
 H      3.4662031728      4.3054471710      3.2167731945
 H     -1.7137633393      5.6949195630      3.3279047267
 H      2.1131464506      5.0753450402      3.3873568817
 H     -0.2769496758      2.1404865188      3.4681419652
 O      2.6210378846      0.0631497003      0.2008384870
 O     -1.3189903740      6.7733033464      0.4756456205
 O     -1.1519288057      2.0764862970      0.4481930413
 O      6.2781842040      2.0691465989      0.4476274364
 O      2.4472459710      4.3421558099      0.1782703035
 O      5.0881104541     -0.0694645122      3.8922811640
 O      1.4983946974      6.4827689406      3.9142852036
 O     -2.4579419451      4.4630673870      3.9783756601
 O      4.8460946785      4.4378043635      4.0404300672
 O      1.2538739577      2.0499559790      3.8807660781
 O      4.9155225187     -0.0184573507      6.7216967082
 O      1.0015932478      6.6284625144      6.7028254390
 O     -2.4535473765      4.3527028061      6.7172808866
 O      4.9942439836      4.3809655142      6.7232760523
 O      1.3886422060      2.1442861528      6.6232725047
 O      2.5412622374     -0.1692939706      3.1725441514
 O     -1.0965868837      6.5021868060      3.1307403883
 O     -1.2345527720      2.1364083456      3.0908245627
 O      6.2301904135      2.0896961323      3.1367311291
 O      2.4482009169      4.1808332679      3.0800184332
 H      5.3060022970     -0.9045210694      6.8901267294
 H      1.8992522692      6.9999666453      6.7933800434
 H     -3.4112743380      4.1588108599      6.6280533863
 H      5.7398785871      4.8663044344      6.3178815968
 H      1.8228075428     -0.7778070074      3.0894139881
 H     -1.6915958614      7.2975462908      3.1916010791
 H     -1.5005375955      1.2276532794      2.9904542150
 H      7.1365023187      2.0333223891      3.4822726751
60
# ORCA AIMD Position Step 43, t=21.50 fs, E_Pot=-1525.77807509 Hartree, Unit is Angstrom
 H      2.8121253078     -0.0432617720      1.1827011263
 H     -1.2305838814      6.9776865309      1.5063633583
 H     -0.9435895891      2.0839642116      1.3925082663
 H      6.5556043597      1.9990966665      1.4246829811
 H      2.5021765709      4.6481375122      1.1001721096
 H      4.8103171709      0.0509151906      4.8216089622
 H      1.2953551194      6.5040080294      4.8565528268
 H     -2.0940184885      4.1557960576      4.8310452681
 H      4.6436171663      4.1311677412      4.9600784464
 H      1.3278357970      2.0929693315      4.8584317686
 H      3.4847922753      0.0842694941     -0.2572373371
 H     -0.6292983005      6.0875908083      0.3951828934
 H     -1.1288413569      2.9651205604      0.1550917411
 H      5.3604929722      2.4588368160      0.4734724866
 H      2.1754351326      3.4370725362      0.3055116072
 H      4.2503620383     -0.2288220411      3.4175198964
 H      0.5930241420      6.6229090179      3.5038584121
 H     -2.2957159858      3.7241565067      3.3487960826
 H      5.2397957985      3.6412895422      3.6671553553
 H      1.7056557456      2.9557204445      3.5168241353
 H      1.1027424876      5.6717521260      6.8529146966
 H     -2.4384787120      5.2776835084      6.9406745734
 H      0.4738055749      2.3220254598      6.8581568435
 H      5.5581626511      0.6401056771      7.1130771188
 H      1.6011871660      1.2678427483      6.9878568849
 H      4.4119615899      5.0833667131      7.0366867635
 H      2.0790503892      0.7352466941      3.2096943775
 H      5.8089576067      1.1559206352      3.3224178192
 H      3.4533284009      4.2950173552      3.2202139272
 H     -1.7041123077      5.6987587132      3.3256062072
 H      2.1145379968      5.0796554323      3.3951844920
 H     -0.2755663713      2.1450713281      3.4714042025
 O      2.6249545445      0.0647484711      0.1960261862
 O     -1.3176400428      6.7772276906      0.4762651811
 O     -1.1495285521      2.0755135827      0.4483285381
 O      6.2742501147      2.0681188231      0.4487675328
 O      2.4439915070      4.3397389066      0.1732797049
 O      5.0875562963     -0.0709407001      3.8901406461
 O      1.5020489330      6.4802629093      3.9127021714
 O     -2.4551674194      4.4631012705      3.9771614687
 O      4.8430208954      4.4365462458      4.0413301237
 O      1.2557329911      2.0487852172      3.8777894520
 O      4.9129757673     -0.0182712105      6.7246957834
 O      0.9976084711      6.6282498815      6.7053237880
 O     -2.4526652451      4.3522466091      6.7204582358
 O      4.9924942056      4.3822784072      6.7265793734
 O      1.3905221870      2.1414892395      6.6242306375
 O      2.5401765851     -0.1730669191      3.1748233816
 O     -1.0945690491      6.5012819614      3.1341391034
 O     -1.2326073542      2.1335329838      3.0935366767
 O      6.2288775573      2.0869432439      3.1404866844
 O      2.4464063402      4.1760841872      3.0803740312
 H      5.3021422135     -0.8960857751      6.8824022088
 H      1.8892222611      6.9906600556      6.7860970477
 H     -3.3946888528      4.1576021069      6.6155539537
 H      5.7277473055      4.8531247281      6.3079982368
 H      1.8188545339     -0.7754015172      3.0735056912
 H     -1.6865728326      7.2794250737      3.1997886761
 H     -1.5016625431      1.2333681524      2.9728983465
 H      7.1244359218      2.0216256341      3.4796661476
60
# ORCA AIMD Position Step 44, t=22.00 fs, E_Pot=-1525.77733357 Hartree, Unit is Angstrom
 H      2.8173604359     -0.0444363688      1.1638517111
 H     -1.2318279241      6.9671740839      1.4913999568
 H     -0.9426710369      2.0796834162      1.3818945617
 H      6.5606815417      1.9894785398      1.4133890019
 H      2.5066702828      4.6387130189      1.0896436312
 H      4.8117496293      0.0443279516      4.8149949041
 H      1.2930468398      6.5083482843      4.8496210377
 H     -2.0905475585      4.1704346986      4.8262802883
 H      4.6302461526      4.1227473411      4.9454802737
 H      1.3234588183      2.0943448481      4.8531500830
 H      3.4799687021      0.0912377146     -0.2525899232
 H     -0.6487493003      6.0843265251      0.3946461066
 H     -1.1140486139      2.9648290158      0.1527978260
 H      5.3657957025      2.4371215588      0.4673116107
 H      2.1792363208      3.4361035761      0.3079250836
 H      4.2553480048     -0.2311245594      3.4231691283
 H      0.6057578850      6.6228832995      3.4994355595
 H     -2.3027351457      3.7231755912      3.3523098756
 H      5.2224751873      3.6521186866      3.6647336780
 H      1.6959530853      2.9509243510      3.5058401275
 H      1.0840081885      5.6809401715      6.8488086035
 H     -2.4458195900      5.2805907868      6.9320138181
 H      0.4809518556      2.3238969674      6.8491780891
 H      5.5493779519      0.6212517021      7.1073042702
 H      1.6015043526      1.2760190749      6.9843853436
 H      4.4281691084      5.0972422162      7.0318126118
 H      2.0744377265      0.7291547974      3.2191771204
 H      5.8039082420      1.1558961569      3.3211736623
 H      3.4389796680      4.2839133710      3.2244596438
 H     -1.6937295581      5.7028056010      3.3239911956
 H      2.1149984061      5.0839047073      3.4031758121
 H     -0.2749673672      2.1487746195      3.4740356609
 O      2.6288360273      0.0663469741      0.1913824922
 O     -1.3162715898      6.7812326010      0.4771909249
 O     -1.1471564240      2.0742034635      0.4483700275
 O      6.2702890454      2.0670793709      0.4499951679
 O      2.4407904252      4.3375070683      0.1682575602
 O      5.0871272136     -0.0724422453      3.8879914998
 O      1.5056728147      6.4777863709      3.9109638953
 O     -2.4524501657      4.4631804182      3.9758463633
 O      4.8399066312      4.4353894878      4.0422886001
 O      1.2576018858      2.0477345178      3.8746790039
 O      4.9104701026     -0.0179447523      6.7277418502
 O      0.9935388718      6.6280207290      6.7078057060
 O     -2.4517036837      4.3515921651      6.7236245086
 O      4.9907615863      4.3834571839      6.7299114380
 O      1.3924883641      2.1387589684      6.6251370038
 O      2.5392121274     -0.1766185840      3.1770703990
 O     -1.0926020577      6.5004480171      3.1375763838
 O     -1.2305830716      2.1309113327      3.0963575155
 O      6.2274600526      2.0841836584      3.1442369757
 O      2.4446709966      4.1713741091      3.0806806295
 H      5.2988123837     -0.8876018162      6.8748204623
 H      1.8802958091      6.9816630615      6.7791236823
 H     -3.3789939396      4.1562490512      6.6027780245
 H      5.7163486141      4.8407174274      6.2976739746
 H      1.8122960806     -0.7756784792      3.0569989476
 H     -1.6813034207      7.2608334051      3.2087154721
 H     -1.5035149904      1.2358375369      2.9552322010
 H      7.1139962473      2.0098382716      3.4778779236
60
# ORCA AIMD Position Step 45, t=22.50 fs, E_Pot=-1525.77441922 Hartree, Unit is Angstrom
 H      2.8227855568     -0.0453809446      1.1431624893
 H     -1.2330935685      6.9549223976      1.4711718382
 H     -0.9412006246      2.0766616813      1.3737617506
 H      6.5633026530      1.9808131324      1.3996816394
 H      2.5111620639      4.6293881225      1.0802440505
 H      4.8132325755      0.0380249028      4.8097928610
 H      1.2900375890      6.5128212636      4.8450666715
 H     -2.0866660795      4.1848180608      4.8228502578
 H      4.6162764251      4.1144658115      4.9317228209
 H      1.3197833197      2.0956885215      4.8488756759
 H      3.4770270925      0.0983201013     -0.2479803508
 H     -0.6673469184      6.0804836323      0.3938069111
 H     -1.0989446235      2.9688143748      0.1496702858
 H      5.3716144479      2.4154804197      0.4620323407
 H      2.1819349159      3.4315610140      0.3104658541
 H      4.2577005697     -0.2339843490      3.4278499459
 H      0.6188706361      6.6224065472      3.4952260445
 H     -2.3091098413      3.7207788467      3.3560303888
 H      5.2082980836      3.6588156851      3.6599652441
 H      1.6864782626      2.9450228222      3.4958468222
 H      1.0658007080      5.6884589167      6.8450609598
 H     -2.4530287331      5.2864349484      6.9238229271
 H      0.4858163800      2.3256758487      6.8410828227
 H      5.5403365696      0.6018046250      7.1012237623
 H      1.6020831674      1.2822753932      6.9817880671
 H      4.4431498327      5.1127116363      7.0275652377
 H      2.0704316763      0.7222771623      3.2296538993
 H      5.7989333597      1.1569632348      3.3205155756
 H      3.4240272700      4.2722503936      3.2294976824
 H     -1.6829481016      5.7065003694      3.3231275092
 H      2.1147209305      5.0874543281      3.4110498872
 H     -0.2751412364      2.1513765060      3.4759983649
 O      2.6325988952      0.0679497122      0.1868807818
 O     -1.3149322218      6.7853428077      0.4783636721
 O     -1.1448345114      2.0725757139      0.4482325944
 O      6.2663984086      2.0659829114      0.4512571046
 O      2.4376405133      4.3354550885      0.1631630565
 O      5.0868761763     -0.0739685756      3.8858323202
 O      1.5093039973      6.4753335394      3.9090614116
 O     -2.4498171023      4.4633431292      3.9744052333
 O      4.8367188725      4.4344410597      4.0432998368
 O      1.2594645379      2.0467874228      3.8714221774
 O      4.9079052357     -0.0175055413      6.7307777545
 O      0.9893134136      6.6278402123      6.7102498469
 O     -2.4505683601      4.3507720664      6.7267949889
 O      4.9890177720      4.3844615297      6.7332897029
 O      1.3945683012      2.1361706051      6.6259410125
 O      2.5383339275     -0.1799760372      3.1792868270
 O     -1.0905965696      6.4996239557      3.1410349912
 O     -1.2284912905      2.1285612944      3.0992862203
 O      6.2258645136      2.0814243034      3.1479500688
 O      2.4429249140      4.1667428497      3.0809454701
 H      5.2963464465     -0.8801637338      6.8675015200
 H      1.8734494920      6.9733207865      6.7725529785
 H     -3.3657231041      4.1543596925      6.5895028668
 H      5.7065234426      4.8294035980      6.2863889779
 H      1.8036287285     -0.7782940297      3.0399051863
 H     -1.6768325812      7.2433003689      3.2184356870
 H     -1.5060011293      1.2349456784      2.9374491362
 H      7.1063920117      1.9978932907      3.4773560665
60
# ORCA AIMD Position Step 46, t=23.00 fs, E_Pot=-1525.77066728 Hartree, Unit is Angstrom
 H      2.8285376399     -0.0462441320      1.1222063961
 H     -1.2343527067      6.9415112349      1.4475987024
 H     -0.9389139158      2.0749177564      1.3691520154
 H      6.5636403977      1.9730746835      1.3845504497
 H      2.5157478724      4.6205409784      1.0726425372
 H      4.8146822861      0.0320897934      4.8064490629
 H      1.2863299674      6.5174181919      4.8430335525
 H     -2.0821249347      4.1986414243      4.8212755980
 H      4.6015283165      4.1060406547      4.9197137667
 H      1.3168862970      2.0970611009      4.8457281597
 H      3.4770794293      0.1055715063     -0.2441629464
 H     -0.6844887124      6.0753537929      0.3924364548
 H     -1.0835193630      2.9761152716      0.1460130472
 H      5.3761487880      2.3946383341      0.4577769375
 H      2.1836112284      3.4236368015      0.3129882956
 H      4.2568819429     -0.2375289003      3.4311791700
 H      0.6317463689      6.6215730951      3.4908886102
 H     -2.3147413300      3.7167454414      3.3598482108
 H      5.1977396722      3.6604894671      3.6523439224
 H      1.6774247962      2.9382206680      3.4868971409
 H      1.0482403900      5.6930798749      6.8418495144
 H     -2.4600944721      5.2946808725      6.9159759844
 H      0.4879455116      2.3274256585      6.8340059908
 H      5.5325953361      0.5835317461      7.0957654422
 H      1.6031610571      1.2854644720      6.9805550451
 H      4.4567312541      5.1298551438      7.0240474037
 H      2.0670677969      0.7147513770      3.2410593761
 H      5.7940032478      1.1590505941      3.3204391277
 H      3.4094942906      4.2601610337      3.2353506953
 H     -1.6721201274      5.7092514018      3.3230833968
 H      2.1138802502      5.0897471158      3.4185480095
 H     -0.2759910702      2.1526826578      3.4772899648
 O      2.6361643373      0.0695632831      0.1824700549
 O     -1.3136628313      6.7895709126      0.4796840881
 O     -1.1425789287      2.0706900735      0.4478332884
 O      6.2626813120      2.0647858830      0.4524847471
 O      2.4345300295      4.3335478958      0.1579647139
 O      5.0868378882     -0.0755206003      3.8836602556
 O      1.5129807419      6.4728979062      3.9070086243
 O     -2.4472901648      4.4636176433      3.9728173596
 O      4.8334435609      4.4337751042      4.0443458896
 O      1.2613049610      2.0459234004      3.8680169174
 O      4.9051666096     -0.0170036932      6.7337401013
 O      0.9848789334      6.6277718432      6.7126394480
 O     -2.4491818396      4.3498420054      6.7299915808
 O      4.9872354126      4.3852756564      6.7367326068
 O      1.3967740451      2.1337924032      6.6266016096
 O      2.5374873159     -0.1831898591      3.1814686579
 O     -1.0884602235      6.4987511950      3.1444956174
 O     -1.2263585329      2.1264649615      3.1023145923
 O      6.2240425221      2.0786767982      3.1516025123
 O      2.4410907831      4.1622242112      3.0811726722
 H      5.2950189018     -0.8747610644      6.8605174452
 H      1.8694190576      6.9658602387      6.7664421623
 H     -3.3561231750      4.1516098167      6.5754920330
 H      5.6988694183      4.8193499751      6.2737251655
 H      1.7937138413     -0.7825976107      3.0223263861
 H     -1.6742274605      7.2283399360      3.2290161991
 H     -1.5088701489      1.2311232702      2.9196291977
 H      7.1024545152      1.9857314105      3.4783986271
60
# ORCA AIMD Position Step 47, t=23.50 fs, E_Pot=-1525.76761687 Hartree, Unit is Angstrom
 H      2.8347975925     -0.0472167088      1.1027674519
 H     -1.2355393881      6.9276247179      1.4233641092
 H     -0.9356508665      2.0744740942      1.3686365424
 H      6.5620188979      1.9661729284      1.3692652884
 H      2.5205084780      4.6124485591      1.0673095874
 H      4.8160654847      0.0265744833      4.8051998190
 H      1.2819962668      6.5221178084      4.8433171275
 H     -2.0767775853      4.2117015619      4.8218421094
 H      4.5858568999      4.0972087734      4.9101540663
 H      1.3148248264      2.0985135080      4.8436880915
 H      3.4809009490      0.1130524959     -0.2417187342
 H     -0.6997910160      6.0684174545      0.3903008539
 H     -1.0678147499      2.9853662088      0.1422694232
 H      5.3776006180      2.3752490853      0.4546332528
 H      2.1844695126      3.4129996255      0.3152881521
 H      4.2527251761     -0.2418087188      3.4330067085
 H      0.6437550784      6.6204876373      3.4860759090
 H     -2.3195553020      3.7109726976      3.3637481140
 H      5.1908728606      3.6570380354      3.6417869799
 H      1.6689945077      2.9307853407      3.4789963308
 H      1.0314026614      5.6939482663      6.8392869940
 H     -2.4670149113      5.3044658574      6.9082940080
 H      0.4872596004      2.3291265553      6.8279902183
 H      5.5278031551      0.5682270773      7.0918870420
 H      1.6048720506      1.2848321298      6.9810149975
 H      4.4689760951      5.1484784332      7.0212379455
 H      2.0643329096      0.7067755580      3.2533270688
 H      5.7890515606      1.1620029692      3.3209533423
 H      3.3964717943      4.2477852283      3.2420760497
 H     -1.6615902027      5.7104835807      3.3239206791
 H      2.1126247173      5.0903381937      3.4254473974
 H     -0.2773326044      2.1525307426      3.4779459720
 O      2.6394720545      0.0711966028      0.1780748313
 O     -1.3124929554      6.7939110763      0.4810057134
 O     -1.1403959444      2.0686315966      0.4471096038
 O      6.2592314609      2.0634530994      0.4535952286
 O      2.4314402652      4.3317264706      0.1526471251
 O      5.0870209826     -0.0771017058      3.8814711272
 O      1.5167376235      6.4704733454      3.9048417111
 O     -2.4448833889      4.4640188551      3.9710708632
 O      4.8300895779      4.4334144572      4.0453948389
 O      1.2631073144      2.0451178262      3.8644727138
 O      4.9021409304     -0.0165076325      6.7365676509
 O      0.9802089678      6.6278663722      6.7149642568
 O     -2.4475010567      4.3488695465      6.7332365237
 O      4.9853942898      4.3859135423      6.7402545823
 O      1.3991007705      2.1316731653      6.6270936598
 O      2.5366083220     -0.1863243983      3.1836066236
 O     -1.0861123239      6.4977877316      3.1479390331
 O     -1.2242244133      2.1245752677      3.1054262456
 O      6.2219823637      2.0759558859      3.1551833442
 O      2.4390899057      4.1578444786      3.0813627433
 H      5.2949889527     -0.8721185811      6.8538801219
 H      1.8685607034      6.9593360995      6.7608119074
 H     -3.3508828300      4.1478112587      6.5605563118
 H      5.6936337152      4.8105240113      6.2594526522
 H      1.7836071304     -0.7877782991      3.0044457919
 H     -1.6743763637      7.2171814538      3.2405198511
 H     -1.5117466544      1.2252346260      2.9019533173
 H      7.1024519769      1.9733298633      3.4810899565
60
# ORCA AIMD Position Step 48, t=24.00 fs, E_Pot=-1525.76637463 Hartree, Unit is Angstrom
 H      2.8417635328     -0.0485065282      1.0866138162
 H     -1.2365387726      6.9139801949      1.4018298816
 H     -0.9313885247      2.0753553132      1.3721764989
 H      6.5588841270      1.9599597750      1.3553078661
 H      2.5254934138      4.6052569134      1.0644271382
 H      4.8174069747      0.0214971374      4.8060351994
 H      1.2771721782      6.5268822560      4.8454076318
 H     -2.0706083202      4.2239056779      4.8245429572
 H      4.5691945030      4.0877786093      4.9034172288
 H      1.3136376751      2.1000843196      4.8426035932
 H      3.4887519936      0.1208119293     -0.2409541633
 H     -0.7131505831      6.0594509445      0.3871925813
 H     -1.0519212827      2.9950676313      0.1389251901
 H      5.3745193686      2.3577744486      0.4526438905
 H      2.1847896782      3.4006493190      0.3171232235
 H      4.2454745474     -0.2467860090      3.4334343638
 H      0.6543294004      6.6192516776      3.4804773294
 H     -2.3235003893      3.7034896929      3.3678141921
 H      5.1873741513      3.6491758654      3.6286862323
 H      1.6613968316      2.9230480157      3.4720989604
 H      1.0153272447      5.6907700312      6.8374016017
 H     -2.4737908934      5.3147572848      6.9005861630
 H      0.4840639140      2.3306664130      6.8229934721
 H      5.5273635401      0.5573600222      7.0903762300
 H      1.6072028195      1.2801895684      6.9832629224
 H      4.4801447385      5.1681294563      7.0190085387
 H      2.0621712656      0.6985970518      3.2663920961
 H      5.7839767067      1.1655814725      3.3220821362
 H      3.3859824352      4.2352574970      3.2497518925
 H     -1.6516613311      5.7097005419      3.3256854165
 H      2.1110741506      5.0889082571      3.4315689939
 H     -0.2789029077      2.1507952012      3.4780373616
 O      2.6424932221      0.0728604532      0.1736031353
 O     -1.3114374286      6.7983364078      0.4821377329
 O     -1.1382801393      2.0664938101      0.4460342891
 O      6.2561130556      2.0619649782      0.4544950225
 O      2.4283496064      4.3299188451      0.1472153080
 O      5.0874051328     -0.0787181862      3.8792605188
 O      1.5206011330      6.4680553158      3.9026138603
 O     -2.4426010974      4.4645470180      3.9691658827
 O      4.8266857461      4.4333255507      4.0464051214
 O      1.2648559321      2.0443421432      3.8608102191
 O      4.8987400631     -0.0160902082      6.7392137005
 O      0.9753076604      6.6281512653      6.7172212978
 O     -2.4455283966      4.3479214081      6.7365456533
 O      4.9834861673      4.3864181515      6.7438615057
 O      1.4015288825      2.1298319615      6.6274119815
 O      2.5356342941     -0.1894478511      3.1856877696
 O     -1.0835000993      6.4967215790      3.1513493152
 O     -1.2221371956      2.1228277077      3.1085978566
 O      6.2197129002      2.0732777161      3.1586952658
 O      2.4368508955      4.1536221690      3.0815131333
 H      5.2962578193     -0.8725652181      6.8475414978
 H      1.8707794807      6.9536109195      6.7556534109
 H     -3.3499635135      4.1429561923      6.5446186920
 H      5.6906734608      4.8026891884      6.2435843457
 H      1.7743822389     -0.7930098765      2.9865003383
 H     -1.6777703369      7.2104971280      3.2529752188
 H     -1.5141913034      1.2183869296      2.8846878854
 H      7.1060272618      1.9607259643      3.4852835898
60
# ORCA AIMD Position Step 49, t=24.50 fs, E_Pot=-1525.76728201 Hartree, Unit is Angstrom
 H      2.8496003540     -0.0502964194      1.0751814798
 H     -1.2371989728      6.9012094598      1.3866194798
 H     -0.9262437024      2.0775785487      1.3791259450
 H      6.5547404423      1.9542488554      1.3442270085
 H      2.5307087568      4.5989749294      1.0638484610
 H      4.8187875856      0.0168454436      4.8087024402
 H      1.2720395138      6.5316570323      4.8485815350
 H     -2.0637370744      4.2352609801      4.8290750199
 H      4.5515859432      4.0776753485      4.8994818136
 H      1.3133472044      2.1017981845      4.8422128403
 H      3.5003071077      0.1288696258     -0.2418599533
 H     -0.7247497768      6.0485797319      0.3829626773
 H     -1.0359634975      3.0038136106      0.1364234664
 H      5.3661560218      2.3423865294      0.4518236931
 H      2.1848734936      3.3877318955      0.3182417196
 H      4.2357395362     -0.2523411661      3.4327820596
 H      0.6630465587      6.6179483289      3.4738644294
 H     -2.3265447434      3.6944542074      3.3722188589
 H      5.1866359115      3.6382234624      3.6138241907
 H      1.6548452180      2.9153953643      3.4661108532
 H      1.0000353996      5.6838809173      6.8361358354
 H     -2.4804201445      5.3245108033      6.8926832964
 H      0.4789839761      2.3318540310      6.8189101940
 H      5.5320362626      0.5517021356      7.0916314204
 H      1.6099845864      1.2719600481      6.9871381240
 H      4.4906251419      5.1881646366      7.0171590098
 H      2.0604955116      0.6904939838      3.2801932241
 H      5.7786479585      1.1694763402      3.3238631152
 H      3.3788128708      4.2226952621      3.2584501075
 H     -1.6425581666      5.7065512772      3.3283977208
 H      2.1093198095      5.0852675893      3.4367819256
 H     -0.2803793900      2.1473898622      3.4776636807
 O      2.6452381630      0.0745659445      0.1689639354
 O     -1.3104951881      6.8028028219      0.4828684843
 O     -1.1362151837      2.0643650149      0.4446205632
 O      6.2533422830      2.0603225245      0.4550878424
 O      2.4252377273      4.3280521502      0.1416954884
 O      5.0879440988     -0.0803789166      3.8770256892
 O      1.5245856265      6.4656418800      3.9003867735
 O     -2.4404376807      4.4651886272      3.9671153809
 O      4.8232716443      4.4334287054      4.0473350758
 O      1.2665354829      2.0435645786      3.8570596056
 O      4.8949269564     -0.0158087882      6.7416589374
 O      0.9702072470      6.6286248910      6.7194141764
 O     -2.4433112796      4.3470535011      6.7399236012
 O      4.9815165440      4.3868547677      6.7475481854
 O      1.4040286127      2.1282543722      6.6275713971
 O      2.5345117788     -0.1926242240      3.1876974503
 O     -1.0806106695      6.4955770872      3.1547172733
 O     -1.2201483244      2.1211527883      3.1118018849
 O      6.2172978784      2.0706584003      3.1621525415
 O      2.4343201429      4.1495684177      3.0816196727
 H      5.2986555150     -0.8759766986      6.8414074876
 H      1.8755517955      6.9483786033      6.7509404717
 H     -3.3526121425      4.1372175808      6.5277563809
 H      5.6894981214      4.7954444793      6.2263794995
 H      1.7669943895     -0.7975593115      2.9687469677
 H     -1.6843552554      7.2082377040      3.2663440594
 H     -1.5157677696      1.2117309050      2.8681487466
 H      7.1122843773      1.9480252863      3.4906394229
60
# ORCA AIMD Position Step 50, t=25.00 fs, E_Pot=-1525.76986162 Hartree, Unit is Angstrom
 H      2.8583752366     -0.0526941078      1.0692507278
 H     -1.2373778719      6.8897186985      1.3807853915
 H     -0.9204450405      2.0811392540      1.3883738726
 H      6.5500529876      1.9488497394      1.3374080162
 H      2.5361123146      4.5934923831      1.0651198649
 H      4.8203327479      0.0125838705      4.8127485889
 H      1.2668026611      6.5363749354      4.8520160676
 H     -2.0563989508      4.2458490952      4.8348924817
 H      4.5332043081      4.0669638123      4.8979427856
 H      1.3139610182      2.1036653665      4.8421804233
 H      3.5147235430      0.1372059694     -0.2441459878
 H     -0.7350027414      6.0362584084      0.3775451501
 H     -1.0200812504      3.0104399663      0.1351073948
 H      5.3526721270      2.3289415272      0.4521774687
 H      2.1849998144      3.3753688520      0.3184089937
 H      4.2243807281     -0.2582943108      3.4315150248
 H      0.6696958904      6.6166288133      3.4661291411
 H     -2.3286716006      3.6841334104      3.3771974892
 H      5.1879260152      3.6257756593      3.5982029963
 H      1.6495500783      2.9082510193      3.4608967291
 H      0.9855477700      5.6741679596      6.8353643057
 H     -2.4868933191      5.3327961909      6.8844590429
 H      0.4728491874      2.3324495770      6.8155984852
 H      5.5416688503      0.5511163710      7.0955301404
 H      1.6129254936      1.2610791811      6.9922622563
 H      4.5008527076      5.2078426491      7.0154595550
 H      2.0592011819      0.6827506381      3.2946731546
 H      5.7729161037      1.1733315030      3.3263438084
 H      3.3753601983      4.2101933210      3.2682025205
 H     -1.6343956817      5.7008856931      3.3320430047
 H      2.1074243042      5.0793565120      3.4410064228
 H     -0.2814084604      2.1422685404      3.4769417784
 O      2.6477560903      0.0763220310      0.1640898230
 O     -1.3096496515      6.8072589726      0.4830157109
 O     -1.1341768175      2.0623198215      0.4429168885
 O      6.2508801409      2.0585468935      0.4552879446
 O      2.4220887687      4.3260622772      0.1361320986
 O      5.0885735706     -0.0820943654      3.8747674627
 O      1.5286905635      6.4632343289      3.8982211193
 O     -2.4383790506      4.4659192152      3.9649433055
 O      4.8198866215      4.4336174831      4.0481530440
 O      1.2681313366      2.0427514768      3.8532577517
 O      4.8907312099     -0.0156896307      6.7439182029
 O      0.9649602205      6.6292578154      6.7215511682
 O     -2.4409306434      4.3463057901      6.7433623714
 O      4.9795029673      4.3873006740      6.7512985996
 O      1.4065653148      2.1268968599      6.6276026412
 O      2.5332010728     -0.1959076292      3.1896213505
 O     -1.0774733866      6.4944098000      3.1580427708
 O     -1.2183070056      2.1194862592      3.1150099935
 O      6.2148230005      2.0681130239      3.1655766075
 O      2.4314713782      4.1456872709      3.0816784610
 H      5.3018629379     -0.8818128442      6.8353611282
 H      1.8820320546      6.9432227877      6.7466420037
 H     -3.3575487387      4.1309056021      6.5102017597
 H      5.6893767262      4.7882944215      6.2082966757
 H      1.7621944396     -0.8008526011      2.9514305044
 H     -1.6935297245      7.2096600293      3.2805033862
 H     -1.5160994446      1.2062996946      2.8526570550
 H      7.1199864085      1.9353913808      3.4966996814
60
# ORCA AIMD Position Step 51, t=25.50 fs, E_Pot=-1525.77284539 Hartree, Unit is Angstrom
 H      2.8680057185     -0.0556940718      1.0687504720
 H     -1.2370092866      6.8795977147      1.3858040749
 H     -0.9142868921      2.0859987606      1.3985661257
 H      6.5451373671      1.9436113029      1.3357969689
 H      2.5416185317      4.5886158628      1.0675587427
 H      4.8221947200      0.0086628584      4.8175908996
 H      1.2616654155      6.5409627430      4.8548954566
 H     -2.0489051259      4.2557947004      4.8412990927
 H      4.5143400510      4.0558409241      4.8980972533
 H      1.3154728671      2.1056824788      4.8421380675
 H      3.5308184844      0.1457627135     -0.2473329977
 H     -0.7444638656      6.0231848148      0.3709671463
 H     -1.0044107064      3.0140986410      0.1351908521
 H      5.3350935324      2.3170411962      0.4537089060
 H      2.1853956878      3.3645305476      0.3174279251
 H      4.2123676796     -0.2644343015      3.4301576530
 H      0.6743157806      6.6153048978      3.4573047798
 H     -2.3298749058      3.6728707852      3.3830144051
 H      5.1905267622      3.6133987367      3.5828660658
 H      1.6457078780      2.9020461327      3.4562932632
 H      0.9718948902      5.6628769667      6.8349229320
 H     -2.4931929120      5.3388824311      6.8758384473
 H      0.4665599024      2.3322021757      6.8129054994
 H      5.5552233829      0.5546375799      7.1014682495
 H      1.6156694519      1.2487933531      6.9981201985
 H      4.5112399494      5.2264235085      7.0136893981
 H      2.0581821419      0.6756302081      3.3097781751
 H      5.7666260675      1.1767760486      3.3295761669
 H      3.3755454860      4.1978272559      3.2789716405
 H     -1.6271641223      5.6927804431      3.3365676234
 H      2.1054207692      5.0712446167      3.4442163600
 H     -0.2816430804      2.1354239849      3.4759912499
 O      2.6501271808      0.0781330616      0.1589551768
 O     -1.3088703163      6.8116573300      0.4824887960
 O     -1.1321370053      2.0604151747      0.4409950016
 O      6.2486422260      2.0566728426      0.4550368665
 O      2.4188929151      4.3238996642      0.1305816260
 O      5.0892211265     -0.0838752845      3.8724911800
 O      1.5328996894      6.4608372443      3.8961685141
 O     -2.4364052476      4.4667073357      3.9626808630
 O      4.8165616878      4.4337782246      4.0488432483
 O      1.2696302637      2.0418692712      3.8494448008
 O      4.8862443424     -0.0157256824      6.7460364764
 O      0.9596290037      6.6300003863      6.7236428909
 O     -2.4384836684      4.3457012784      6.7468432706
 O      4.9774710465      4.3878340442      6.7550885511
 O      1.4091041382      2.1256971000      6.6275457253
 O      2.5316780213     -0.1993386672      3.1914473437
 O     -1.0741518046      6.4932919054      3.1613349120
 O     -1.2166555153      2.1177757373      3.1181964125
 O      6.2123807651      2.0656550445      3.1689911549
 O      2.4283110579      4.1419755228      3.0816874645
 H      5.3054615031     -0.8892330858      6.8292864075
 H      1.8892060297      6.9376895287      6.7427304058
 H     -3.3632430280      4.1243993935      6.4923031027
 H      5.6894719275      4.7807266187      6.1899123092
 H      1.7604858786     -0.8025049007      2.9347553039
 H     -1.7042905134      7.2135320631      3.2952531930
 H     -1.5149063584      1.2029073123      2.8384982147
 H      7.1277875057      1.9230215058      3.5029744930
60
# ORCA AIMD Position Step 52, t=26.00 fs, E_Pot=-1525.77454405 Hartree, Unit is Angstrom
 H      2.8782459523     -0.0591664354      1.0727843450
 H     -1.2361433510      6.8706497092      1.4009949124
 H     -0.9080818290      2.0920743235      1.4083233934
 H      6.5400724225      1.9384627686      1.3396714645
 H      2.5471074828      4.5841125767      1.0703606277
 H      4.8245312909      0.0050290051      4.8225976390
 H      1.2568126553      6.5453475519      4.8565008142
 H     -2.0415981995      4.2652334249      4.8475521749
 H      4.4953724191      4.0446027547      4.8990800991
 H      1.3178640012      2.1078336141      4.8417306422
 H      3.5472828512      0.1544503529     -0.2508675184
 H     -0.7537220866      6.0101828490      0.3633405417
 H     -0.9890738343      3.0142788442      0.1367495618
 H      5.3150314108      2.3061593653      0.4564142668
 H      2.1862204763      3.3559586664      0.3151490858
 H      4.2006474289     -0.2705465046      3.4292143324
 H      0.6771858592      6.6139475110      3.4475656767
 H     -2.3301538878      3.6610525875      3.3899265093
 H      5.1938238856      3.6024291249      3.5687630299
 H      1.6434899782      2.8971855027      3.4521281793
 H      0.9591186531      5.6513842239      6.8346400466
 H     -2.4992919351      5.3422806021      6.8668006689
 H      0.4609728091      2.3308848465      6.8106878981
 H      5.5710746591      0.5607930433      7.1085447380
 H      1.6178608505      1.2364363229      7.0041512272
 H      4.5221238365      5.2432438741      7.0116652636
 H      2.0573482655      0.6693436206      3.3254485516
 H      5.7596417976      1.1794745176      3.3336067430
 H      3.3788230628      4.1856670040      3.2906309307
 H     -1.6207354581      5.6825306516      3.3418803470
 H      2.1033122742      5.0611235504      3.4464381154
 H     -0.2807898401      2.1268875043      3.4749158258
 O      2.6524499205      0.0799976028      0.1535817987
 O     -1.3081169087      6.8159597387      0.4813258050
 O     -1.1300676129      2.0586895603      0.4389368914
 O      6.2465217861      2.0547382017      0.4543182757
 O      2.4156468616      4.3215315189      0.1251052803
 O      5.0898156046     -0.0857316927      3.8702066263
 O      1.5371826473      6.4584582291      3.8942658962
 O     -2.4344933909      4.4675186805      3.9603622252
 O      4.8133156729      4.4338046865      4.0494057789
 O      1.2710212036      2.0408868668      3.8456601310
 O      4.8815974651     -0.0158872681      6.7480758390
 O      0.9542765662      6.6307928135      6.7256999675
 O     -2.4360673993      4.3452476734      6.7503400404
 O      4.9754500001      4.3885251404      6.7588887693
 O      1.4116131531      2.1245858319      6.6274429313
 O      2.5299342191     -0.2029417859      3.1931670999
 O     -1.0707294621      6.4922945308      3.1646103414
 O     -1.2152248540      2.1159845621      3.1213407988
 O      6.2100567688      2.0632947826      3.1724183368
 O      2.4248775213      4.1384220376      3.0816475997
 H      5.3089908544     -0.8972477127      6.8230896633
 H      1.8960384584      6.9313556184      6.7391878072
 H     -3.3681775525      4.1180783807      6.4744723941
 H      5.6889644622      4.7722771600      6.1718426166
 H      1.7621066728     -0.8023326345      2.9188691401
 H     -1.7154525446      7.2184209031      3.3103433396
 H     -1.5120284349      1.2020907592      2.8258926994
 H      7.1344301986      1.9111224291      3.5090129801
60
# ORCA AIMD Position Step 53, t=26.50 fs, E_Pot=-1525.77382618 Hartree, Unit is Angstrom
 H      2.8887230103     -0.0628837099      1.0798708416
 H     -1.2349269625      6.8625221817      1.4238201764
 H     -0.9021234576      2.0992389220      1.4164131533
 H      6.5346852999      1.9334315401      1.3485594848
 H      2.5524427538      4.5797494375      1.0727069199
 H      4.8274883165      0.0016316235      4.8271619027
 H      1.2523963919      6.5494645804      4.8562630161
 H     -2.0348086334      4.2742923361      4.8529553709
 H      4.4767229975      4.0335957850      4.8999978705
 H      1.3211028417      2.1100924559      4.8406458582
 H      3.5628695726      0.1631643227     -0.2542167203
 H     -0.7633224028      5.9980822337      0.3548405190
 H     -0.9741611029      3.0108104924      0.1397217341
 H      5.2943231211      2.2957591964      0.4602707556
 H      2.1875628720      3.3501263892      0.3114771896
 H      4.1900506835     -0.2764350192      3.4291170448
 H      0.6787811577      6.6124957834      3.4372007777
 H     -2.3295114914      3.6490665381      3.3981521016
 H      5.1973380950      3.5938969844      3.5566797704
 H      1.6430243209      2.8940001605      3.4482418177
 H      0.9472630708      5.6409945782      6.8343592668
 H     -2.5051582513      5.3427681777      6.8573721592
 H      0.4568104243      2.3283211070      6.8088233093
 H      5.5874082919      0.5679773395      7.1157849598
 H      1.6191941689      1.2252422355      7.0098269692
 H      4.5337386165      5.2577839433      7.0092596566
 H      2.0566366201      0.6640258407      3.3416176315
 H      5.7518598577      1.1811610409      3.3384694182
 H      3.3842986520      4.1737904580      3.3029738868
 H     -1.6148886777      5.6706042158      3.3478580959
 H      2.1010671833      5.0493111127      3.4477548000
 H     -0.2786450094      2.1167267328      3.4737904063
 O      2.6548269352      0.0819090852      0.1480297367
 O     -1.3073456310      6.8201368112      0.4796762730
 O     -1.1279438478      2.0571626596      0.4368240894
 O      6.2444133442      2.0527753658      0.4531638763
 O      2.4123529160      4.3189419522      0.1197617238
 O      5.0902939753     -0.0876719258      3.8679265679
 O      1.5414988870      6.4561067039      3.8925336659
 O     -2.4326204346      4.4683197683      3.9580206179
 O      4.8101557687      4.4336060792      4.0498525290
 O      1.2722964409      2.0397785630      3.8419389959
 O      4.8769326601     -0.0161362627      6.7501009514
 O      0.9489590244      6.6315749380      6.7277317952
 O     -2.4337668660      4.3449390834      6.7538232163
 O      4.9734687493      4.3894296017      6.7626688189
 O      1.4140659591      2.1234969340      6.6273333059
 O      2.5279763944     -0.2067240113      3.1947777316
 O     -1.0672954573      6.4914749639      3.1678901339
 O     -1.2140321263      2.1140931596      3.1244306001
 O      6.2079206434      2.0610386873      3.1758763661
 O      2.4212338377      4.1350068101      3.0815619055
 H      5.3120065583     -0.9048679094      6.8167075373
 H      1.9015983886      6.9238756686      6.7360040931
 H     -3.3710329235      4.1122715130      6.4571243407
 H      5.6871431188      4.7625712734      6.1546643400
 H      1.7670276915     -0.8003501770      2.9038398436
 H     -1.7258521980      7.2229404283      3.3255111422
 H     -1.5074304789      1.2040928464      2.8149693594
 H      7.1388792788      1.8998838358      3.5144488634
60
# ORCA AIMD Position Step 54, t=27.00 fs, E_Pot=-1525.77094633 Hartree, Unit is Angstrom
 H      2.8989999340     -0.0665650903      1.0882723861
 H     -1.2335425521      6.8548517418      1.4508135076
 H     -0.8966629793      2.1073233185      1.4218520469
 H      6.5286103413      1.9286331611      1.3613494178
 H      2.5574866871      4.5753240306      1.0738539298
 H      4.8311847162     -0.0015718550      4.8307616983
 H      1.2485268336      6.5532627710      4.8537992546
 H     -2.0288218185      4.2830763008      4.8569277339
 H      4.4588133910      4.0231689001      4.9000415484
 H      1.3251456574      2.1124244987      4.8386434211
 H      3.5765216254      0.1717989517     -0.2569357722
 H     -0.7737086248      5.9876230751      0.3456752602
 H     -0.9597208521      3.0038553384      0.1439136345
 H      5.2747176817      2.2853812039      0.4652229605
 H      2.1894418428      3.3472218634      0.3063717657
 H      4.1812339419     -0.2819371391      3.4301930006
 H      0.6796975390      6.6108696019      3.4265727839
 H     -2.3279518103      3.6372697324      3.4078465118
 H      5.2007259739      3.5885186775      3.5472123265
 H      1.6443821902      2.8927102561      3.4445073724
 H      0.9363633005      5.6328037924      6.8339540619
 H     -2.5107578896      5.3403921960      6.8476197403
 H      0.4546066620      2.3244014172      6.8072169585
 H      5.6025362309      0.5747337609      7.1223094316
 H      1.6194455565      1.2162251553      7.0147028390
 H      4.5462035540      5.2697045126      7.0064094016
 H      2.0560198856      0.6597168752      3.3582030472
 H      5.7432297140      1.1816779800      3.3441762721
 H      3.3908914187      4.1622944249      3.3157335853
 H     -1.6093476217      5.6575784101      3.3543552584
 H      2.0986164040      5.0362452483      3.4483054311
 H     -0.2751274715      2.1050455708      3.4726497221
 O      2.6573529507      0.0838576957      0.1423807517
 O     -1.3065167016      6.8241649585      0.4777452472
 O     -1.1257463648      2.0558356688      0.4347309714
 O      6.2422288880      2.0508063391      0.4516474874
 O      2.4090179685      4.3161311433      0.1146013360
 O      5.0906057038     -0.0897022422      3.8656649785
 O      1.5458029723      6.4537926681      3.8909758275
 O     -2.4307652762      4.4690807364      3.9556854864
 O      4.8070798495      4.4331106454      4.0502016962
 O      1.2734525286      2.0385264884      3.8383094004
 O      4.8723805875     -0.0164366142      6.7521682577
 O      0.9437212390      6.6322931262      6.7297457545
 O     -2.4316485584      4.3447577864      6.7572633168
 O      4.9715533047      4.3905849842      6.7663997425
 O      1.4164431298      2.1223739217      6.6272490554
 O      2.5258257878     -0.2106741300      3.1962833379
 O     -1.0639330124      6.4908699843      3.1711966794
 O     -1.2130785029      2.1120994533      3.1274627065
 O      6.2060203933      2.0588879785      3.1793785506
 O      2.4174575226      4.1317004619      3.0814342422
 H      5.3141210940     -0.9112203866      6.8101099548
 H      1.9051390807      6.9150100297      6.7331753397
 H     -3.3707893814      4.1072261853      6.4406343124
 H      5.6834598022      4.7513427455      6.1388658704
 H      1.7749551825     -0.7967654141      2.8896403851
 H     -1.7344883270      7.2259192514      3.3405116312
 H     -1.5012027372      1.2088576237      2.8057490662
 H      7.1403947259      1.8894614231      3.5190237038
60
# ORCA AIMD Position Step 55, t=27.50 fs, E_Pot=-1525.76736582 Hartree, Unit is Angstrom
 H      2.9086406636     -0.0699229032      1.0962930489
 H     -1.2321524864      6.8473503888      1.4785136565
 H     -0.8918969536      2.1161219458      1.4239568836
 H      6.5213972071      1.9242379711      1.3765358248
 H      2.5621146362      4.5706847405      1.0731954865
 H      4.8357031679     -0.0046134269      4.8330000526
 H      1.2452666365      6.5567094829      4.8489302223
 H     -2.0238559936      4.2916629446      4.8590460462
 H      4.4420291867      4.0136341184      4.8985589723
 H      1.3299371839      2.1147893132      4.8355704217
 H      3.5874433220      0.1802598817     -0.2587042247
 H     -0.7851944844      5.9793894974      0.3360550097
 H     -0.9457477144      2.9938968068      0.1490062860
 H      5.2576771703      2.2746835619      0.4711753496
 H      2.1918106272      3.3471440109      0.2998462175
 H      4.1746536839     -0.2869315725      3.4326517172
 H      0.6805703347      6.6089842505      3.4160706649
 H     -2.3254792571      3.6259632407      3.4190875355
 H      5.2037643390      3.5867277794      3.5407688509
 H      1.6475670489      2.8933956210      3.4408466225
 H      0.9264346338      5.6276202556      6.8333341554
 H     -2.5160595868      5.3354635196      6.8376413303
 H      0.4546756856      2.3190913507      6.8058040246
 H      5.6150737506      0.5798994813      7.1274212096
 H      1.6184873842      1.2101147486      7.0184466090
 H      4.5595225147      5.2788713982      7.0031178698
 H      2.0555071890      0.6563546435      3.3751002047
 H      5.7337663618      1.1809969820      3.3507109833
 H      3.3974966327      4.1512972559      3.3286109363
 H     -1.6038197699      5.6440733546      3.3612135764
 H      2.0958514225      5.0224748734      3.4482826053
 H     -0.2702929548      2.0919844530      3.4714849295
 O      2.6601062436      0.0858325090      0.1367217989
 O     -1.3055997518      6.8280253104      0.4757371287
 O     -1.1234627153      2.0546914755      0.4327212036
 O      6.2399036839      2.0488422277      0.4498702384
 O      2.4056523248      4.3131143928      0.1096622138
 O      5.0907148058     -0.0918266208      3.8634352649
 O      1.5500501236      6.4515252960      3.8895817213
 O     -2.4289101721      4.4697771088      3.9533807414
 O      4.8040793994      4.4322663458      4.0504730463
 O      1.2744909912      2.0371223865      3.8347900847
 O      4.8680476357     -0.0167586649      6.7543207593
 O      0.9385944571      6.6329044984      6.7317470287
 O     -2.4297577323      4.3446755479      6.7606334935
 O      4.9697251999      4.3920090909      6.7700561981
 O      1.4187332782      2.1211734370      6.6272136873
 O      2.5235174545     -0.2147629547      3.1976963740
 O     -1.0607122182      6.4904950011      3.1745510403
 O     -1.2123487221      2.1100184697      3.1304443581
 O      6.2043797545      2.0568380567      3.1829330620
 O      2.4136302333      4.1284646512      3.0812675625
 H      5.3150315294     -0.9156240458      6.8032967525
 H      1.9061453750      6.9046356426      6.7307005337
 H     -3.3667659252      4.1030930245      6.4253077113
 H      5.6775562617      4.7384375679      6.1248135424
 H      1.7853407511     -0.7919694490      2.8761346299
 H     -1.7405943257      7.2264803545      3.3551380943
 H     -1.4935550211      1.2160372510      2.7981326501
 H      7.1385630782      1.8799642650      3.5225948304
60
# ORCA AIMD Position Step 56, t=28.00 fs, E_Pot=-1525.76482372 Hartree, Unit is Angstrom
 H      2.9172572662     -0.0726976531      1.1024755093
 H     -1.2308739995      6.8398292640      1.5040210109
 H     -0.8879621977      2.1254007543      1.4223634413
 H      6.5126217028      1.9204306010      1.3924984077
 H      2.5662264747      4.5657414496      1.0703016486
 H      4.8410849911     -0.0075134989      4.8336301874
 H      1.2426261179      6.5597943244      4.8416888072
 H     -2.0200492325      4.3001028048      4.8590675349
 H      4.4266930965      4.0052384711      4.8950936284
 H      1.3354117357      2.1171430784      4.8313712608
 H      3.5951292973      0.1884732987     -0.2593401238
 H     -0.7979539275      5.9737690415      0.3261658813
 H     -0.9321726433      2.9817210969      0.1545650045
 H      5.2442844691      2.2634490629      0.4779916602
 H      2.1945619819      3.3495055287      0.2919656202
 H      4.1705581530     -0.2913424289      3.4365829120
 H      0.6820006853      6.6067633608      3.4060648503
 H     -2.3220983214      3.6153740017      3.4318690912
 H      5.2063326558      3.5887115515      3.5375806762
 H      1.6525116007      2.8959884678      3.4372350051
 H      0.9174636060      5.6259305479      6.8324469505
 H     -2.5210390163      5.3285391146      6.8275556241
 H      0.4570991917      2.3124334530      6.8045496553
 H      5.6239984250      0.5826452570      7.1306290683
 H      1.6162917852      1.2073308717      7.0208510822
 H      4.5735917037      5.2853672132      6.9994528132
 H      2.0551376656      0.6537803928      3.3921775971
 H      5.7235552749      1.1792225649      3.3580250444
 H      3.4031077854      4.1409332431      3.3413003793
 H     -1.5980282677      5.6306960635      3.3682709050
 H      2.0926268575      5.0086376929      3.4479244855
 H     -0.2643293649      2.0777208122      3.4702479842
 O      2.6631438547      0.0878230839      0.1311334588
 O     -1.3045760946      6.8317049848      0.4738228525
 O     -1.1210882557      2.0536952991      0.4308460111
 O      6.2373952653      2.0468852922      0.4479432692
 O      2.4022686373      4.3099213029      0.1049677804
 O      5.0906005558     -0.0940467614      3.8612487950
 O      1.5542011579      6.4493117154      3.8883281696
 O     -2.4270416498      4.4703907516      3.9511237568
 O      4.8011421326      4.4310405882      4.0506847673
 O      1.2754185045      2.0355680179      3.8313895692
 O      4.8640113218     -0.0170790903      6.7565869935
 O      0.9335954236      6.6333790974      6.7337386643
 O     -2.4281178985      4.3446551069      6.7639116249
 O      4.9680006023      4.3936997138      6.7736180179
 O      1.4209336248      2.1198666863      6.6272412492
 O      2.5210991798     -0.2189449807      3.1990385760
 O     -1.0576860420      6.4903461484      3.1779710390
 O     -1.2118121207      2.1078812785      3.1333932581
 O      6.2029974109      2.0548788850      3.1865429364
 O      2.4098296800      4.1252537418      3.0810627043
 H      5.3145341176     -0.9176306411      6.7962914649
 H      1.9043564843      6.8927456499      6.7285785658
 H     -3.3586247877      4.0999197957      6.4113589507
 H      5.6692717673      4.7238074772      6.1127313200
 H      1.7974045889     -0.7865165265      2.8630681666
 H     -1.7436639119      7.2240634574      3.3692338613
 H     -1.4848058353      1.2250086295      2.7918940063
 H      7.1333061584      1.8714454785      3.5251355369
60
# ORCA AIMD Position Step 57, t=28.50 fs, E_Pot=-1525.76445889 Hartree, Unit is Angstrom
 H      2.9245359483     -0.0746790146      1.1056992915
 H     -1.2297795658      6.8321894842      1.5251736591
 H     -0.8849335137      2.1349070694      1.4170327860
 H      6.5019667133      1.9173763360      1.4077262220
 H      2.5697554274      4.5604694904      1.0649410830
 H      4.8473288559     -0.0102811377      4.8325674137
 H      1.2405595161      6.5625319202      4.8323205579
 H     -2.0174532393      4.3084225519      4.8569387814
 H      4.4130461596      3.9981459627      4.8893991050
 H      1.3414947892      2.1194410778      4.8260904723
 H      3.5993719165      0.1963926685     -0.2588021360
 H     -0.8120240225      5.9709323983      0.3161507381
 H     -0.9188575117      2.9683767415      0.1600556795
 H      5.2352218810      2.2515748003      0.4854993017
 H      2.1975353181      3.3536459181      0.2828427495
 H      4.1689881346     -0.2951410311      3.4419604162
 H      0.6844971018      6.6041486563      3.3968702617
 H     -2.3178141465      3.6056446731      3.4461017891
 H      5.2084014348      3.5944378481      3.5377120579
 H      1.6590830912      2.9002882742      3.4336958474
 H      0.9094013269      5.6278874071      6.8312764780
 H     -2.5256816007      5.3203877284      6.8174907412
 H      0.4617251400      2.3045450294      6.8034477281
 H      5.6286474124      0.5824633272      7.1316386241
 H      1.6129290113      1.2079759910      7.0218391948
 H      4.5882121855      5.2894939162      6.9955407405
 H      2.0549689261      0.6517542426      3.4092745567
 H      5.7127495352      1.1765794565      3.3660367709
 H      3.4068883890      4.1313422028      3.3535082670
 H     -1.5917305560      5.6180047110      3.3753669059
 H      2.0887702063      4.9954198347      3.4474986905
 H     -0.2575335328      2.0624685294      3.4688629130
 O      2.6664994677      0.0898203058      0.1256838816
 O     -1.3034385719      6.8351991513      0.4721303668
 O     -1.1186266190      2.0527966017      0.4291428063
 O      6.2346798751      2.0449316978      0.4459735439
 O      2.3988808935      4.3065947424      0.1005255998
 O      5.0902574180     -0.0963621809      3.8591139264
 O      1.5582262900      6.4471560710      3.8871816833
 O     -2.4251511100      4.4709100435      3.9489248564
 O      4.7982539143      4.4294199529      4.0508519762
 O      1.2762464872      2.0338741736      3.8281063778
 O      4.8603200388     -0.0173789638      6.7589821008
 O      0.9287262901      6.6337010282      6.7357217264
 O     -2.4267311059      4.3446524679      6.7670821999
 O      4.9663897007      4.3956351684      6.7770715611
 O      1.4230501526      2.1184400373      6.6273360921
 O      2.5186289525     -0.2231619924      3.2003407976
 O     -1.0548885692      6.4904030702      3.1814699881
 O     -1.2114253319      2.1057327389      3.1363366398
 O      6.2018473883      2.0529963912      3.1902060556
 O      2.4061242627      4.1220179448      3.0808181325
 H      5.3125315308     -0.9170432843      6.7891339614
 H      1.8997748762      6.8794430001      6.7268056126
 H     -3.3463645296      4.0976490597      6.3988943681
 H      5.6586414741      4.7074996844      6.1026867690
 H      1.8101866840     -0.7810829648      2.8500732673
 H     -1.7434529682      7.2184180396      3.3826997284
 H     -1.4753635889      1.2349092234      2.7866828629
 H      7.1248782596      1.8638948706      3.5267319685
60
# ORCA AIMD Position Step 58, t=29.00 fs, E_Pot=-1525.76642713 Hartree, Unit is Angstrom
 H      2.9302464001     -0.0757153147      1.1052059507
 H     -1.2289091047      6.8244044252      1.5404920219
 H     -0.8828224316      2.1443831054      1.4082515402
 H      6.4892634991      1.9151999615      1.4209555096
 H      2.5726747682      4.5549083791      1.0570919647
 H      4.8543928807     -0.0129145765      4.8298894228
 H      1.2389634485      6.5649638323      4.8212776646
 H     -2.0160327266      4.3166300340      4.8527949264
 H      4.4012342434      3.9924266383      4.8814396146
 H      1.3481047081      2.1216394546      4.8198638986
 H      3.6002586710      0.2040044410     -0.2571859196
 H     -0.8273131047      5.9708232086      0.3060954226
 H     -0.9055994845      2.9550938492      0.1648725650
 H      5.2307742273      2.2390571848      0.4934971463
 H      2.2005268185      3.3586611279      0.2726306654
 H      4.1697827909     -0.2983458210      3.4486494026
 H      0.6884439595      6.6011055872      3.3887223848
 H     -2.3126335266      3.5968323251      3.4616208683
 H      5.2100276198      3.6036700625      3.5410651944
 H      1.6670913224      2.9059837974      3.4302906945
 H      0.9021587919      5.6333055561      6.8298416105
 H     -2.5299829557      5.3119330177      6.8075736840
 H      0.4681748814      2.2956131329      6.8025182810
 H      5.6286933469      0.5791390426      7.1303336341
 H      1.6085636901      1.2118332334      7.0214664821
 H      4.6031083167      5.2917633005      6.9915587100
 H      2.0550595657      0.6499841695      3.4262041406
 H      5.7015553154      1.1733782033      3.3746359493
 H      3.4082008275      4.1226567035      3.3649656628
 H     -1.5847342127      5.6064802665      3.3823494871
 H      2.0840974054      4.9835021050      3.4472793007
 H     -0.2502754533      2.0464747613      3.4672410234
 O      2.6701829333      0.0918165627      0.1204269614
 O     -1.3021904046      6.8385130375      0.4707490096
 O     -1.1160895127      2.0519333702      0.4276334313
 O      6.2317498819      2.0429737664      0.4440548110
 O      2.3955033811      4.3031890737      0.0963271627
 O      5.0896946439     -0.0987701529      3.8570355164
 O      1.5621072653      6.4450588883      3.8861003082
 O     -2.4232349678      4.4713296418      3.9467869040
 O      4.7953999141      4.4274103492      4.0509864396
 O      1.2769903902      2.0320588908      3.8249302645
 O      4.8569945676     -0.0176418124      6.7615095335
 O      0.9239748329      6.6338693093      6.7376954469
 O     -2.4255784666      4.3446205054      6.7701380484
 O      4.9648961795      4.3977757332      6.7804108354
 O      1.4250973562      2.1168954715      6.6274929247
 O      2.5161705416     -0.2273490050      3.2016413372
 O     -1.0523335942      6.4906308997      3.1850558030
 O     -1.2111363141      2.1036275049      3.1393091932
 O      6.2008800636      2.0511750699      3.1939147945
 O      2.4025702284      4.1187077453      3.0805304925
 H      5.3090333502     -0.9139188620      6.7818726172
 H      1.8926689818      6.8649309381      6.7253729602
 H     -3.3303108269      4.0961175319      6.3878957801
 H      5.6458869387      4.6896433884      6.0945823307
 H      1.8226329428     -0.7764003841      2.8366932539
 H     -1.7399835890      7.2095970614      3.3955009284
 H     -1.4656987950      1.2447021187      2.7820419936
 H      7.1138637248      1.8572314701      3.5275806551
60
# ORCA AIMD Position Step 59, t=29.50 fs, E_Pot=-1525.76999141 Hartree, Unit is Angstrom
 H      2.9342441177     -0.0757182070      1.1006010532
 H     -1.2282828919      6.8165025497      1.5490615657
 H     -0.8815755799      2.1535836083      1.3966316082
 H      6.4745031081      1.9139761996      1.4312347232
 H      2.5750032724      4.5491573272      1.0469495949
 H      4.8621991645     -0.0154024014      4.8258306047
 H      1.2376774221      6.5671587280      4.8091976488
 H     -2.0156672883      4.3247206916      4.8469547008
 H      4.3912955896      3.9880479556      4.8713875033
 H      1.3551557757      2.1236977057      4.8129131169
 H      3.5981693415      0.2113338895     -0.2547189378
 H     -0.8436174652      5.9731605611      0.2960203551
 H     -0.8921504776      2.9431455568      0.1683850814
 H      5.2308409972      2.2259761636      0.5017646876
 H      2.2033070313      3.3634684509      0.2615094294
 H      4.1725836617     -0.3010221373      3.4564152971
 H      0.6940733541      6.5976261352      3.3817577856
 H     -2.3065660861      3.5889117543      3.4781974483
 H      5.2113647253      3.6159598930      3.5473744846
 H      1.6763081541      2.9127008693      3.4270984891
 H      0.8956031992      5.6416626977      6.8281933154
 H     -2.5339461206      5.3041619594      6.7979182758
 H      0.4758658831      2.2858848781      6.8018033633
 H      5.6241347819      0.5727355738      7.1267642870
 H      1.6034494972      1.2183684192      7.0199222047
 H      4.6179541239      5.2928694649      6.9877198694
 H      2.0554564862      0.6481508786      3.4427584361
 H      5.6902185930      1.1699880435      3.3836876335
 H      3.4066078032      4.1149895720      3.3754345589
 H     -1.5768929873      5.5965235135      3.3890756648
 H      2.0784404823      4.9734780241      3.4475118512
 H     -0.2429574217      2.0300135896      3.4652963069
 O      2.6741802564      0.0938056124      0.1154019464
 O     -1.3008433358      6.8416629815      0.4697374101
 O     -1.1134956095      2.0510398119      0.4263212108
 O      6.2286124532      2.0410016039      0.4422630227
 O      2.3921492279      4.2997663401      0.0923483525
 O      5.0889356966     -0.1012659493      3.8550148238
 O      1.5658388166      6.4430168806      3.8850361728
 O     -2.4212949231      4.4716496046      3.9447050565
 O      4.7925651401      4.4250382615      4.0510971522
 O      1.2776683032      2.0301445381      3.8218439755
 O      4.8540286940     -0.0178527718      6.7641623961
 O      0.9193154310      6.6338986984      6.7396574316
 O     -2.4246207937      4.3445147554      6.7730823444
 O      4.9635164657      4.4000663235      6.7836388795
 O      1.4270970823      2.1152510828      6.6276969204
 O      2.5137855257     -0.2314427721      3.2029817394
 O     -1.0500144214      6.4909815182      3.1887302350
 O     -1.2108897080      2.1016231513      3.1423495183
 O      6.2000246664      2.0494003117      3.1976561436
 O      2.3992095764      4.1152796081      3.0801963314
 H      5.3041559384     -0.9085659853      6.7745553015
 H      1.8835634666      6.8494986450      6.7242649880
 H     -3.3111089370      4.0950554145      6.3782009210
 H      5.6314019997      4.6704345032      6.0881481800
 H      1.8337351849     -0.7731467886      2.8224428888
 H     -1.7335424212      7.1979439073      3.4076771276
 H     -1.4563008707      1.2532889383      2.7774479388
 H      7.1011496191      1.8513008480      3.5279788242
60
# ORCA AIMD Position Step 60, t=30.00 fs, E_Pot=-1525.77385437 Hartree, Unit is Angstrom
 H      2.9364682598     -0.0746641098      1.0918465213
 H     -1.2279113481      6.8085589769      1.5504168200
 H     -0.8810735519      2.1622939880      1.3831015769
 H      6.4578351871      1.9137279982      1.4379315170
 H      2.5768058972      4.5433683468      1.0349258964
 H      4.8706386405     -0.0177253570      4.8207644417
 H      1.2364940481      6.5692069640      4.7968621050
 H     -2.0161587848      4.3326818216      4.8399071307
 H      4.3831579385      3.9848748556      4.8596142854
 H      1.3625582603      2.1255781717      4.8055203129
 H      3.5937659121      0.2184470072     -0.2517527328
 H     -0.8606352000      5.9774545956      0.2858791087
 H     -0.8782626492      2.9336587242      0.1700025773
 H      5.2349475999      2.2124859571      0.5100692231
 H      2.2056444740      3.3669159110      0.2496684480
 H      4.1768478155     -0.3032809486      3.4649354693
 H      0.7014538998      6.5937316756      3.3760059073
 H     -2.2996261772      3.5817859471      3.4955478165
 H      5.2126743056      3.6306400763      3.5562020470
 H      1.6864767410      2.9200313746      3.4242010848
 H      0.8895583310      5.6521089896      6.8264126593
 H     -2.5375739696      5.2980037506      6.7886198466
 H      0.4840507022      2.2756548583      6.8013613635
 H      5.6153023446      0.5635928780      7.1211452122
 H      1.5979207227      1.2267399236      7.0175264999
 H      4.6324017727      5.2936372757      6.9842535100
 H      2.0561789948      0.6459424597      3.4587129595
 H      5.6790058877      1.1667931507      3.3930382067
 H      3.4018721663      4.1084277523      3.3847119567
 H     -1.5681036839      5.5884587606      3.3954112519
 H      2.0716775628      4.9657803978      3.4483792642
 H     -0.2359738036      2.0133796107      3.4629617867
 O      2.6784543049      0.0957824882      0.1106334960
 O     -1.2994161557      6.8446760874      0.4691307200
 O     -1.1108677873      2.0500572113      0.4251874635
 O      6.2252890946      2.0390038148      0.4406553850
 O      2.3888288514      4.2963897857      0.0885506665
 O      5.0880172217     -0.1038428970      3.8530499793
 O      1.5694286398      6.4410229657      3.8839386424
 O     -2.4193378603      4.4718741738      3.9426672240
 O      4.7897341279      4.4223514976      4.0511913747
 O      1.2783000823      2.0281555377      3.8188258906
 O      4.8513892195     -0.0179993426      6.7669239211
 O      0.9147106982      6.6338200867      6.7416036543
 O     -2.4237999544      4.3443006596      6.7759294500
 O      4.9622390891      4.4024403432      6.7867686476
 O      1.4290765937      2.1135412947      6.6279242479
 O      2.5115238499     -0.2353919500      3.2044002069
 O     -1.0479035618      6.4913939907      3.1924884389
 O     -1.2106327822      2.0997702286      3.1454943160
 O      6.1991934677      2.0476609398      3.2014121610
 O      2.3960685389      4.1117017043      3.0798138935
 H      5.2981161987     -0.9015315134      6.7672241630
 H      1.8732144958      6.8335058123      6.7234595495
 H     -3.2897084834      4.0940925706      6.3694936184
 H      5.6157329843      4.6501247894      6.0829469592
 H      1.8426940919     -0.7718181747      2.8069074566
 H     -1.7246838852      7.1840851229      3.4193499144
 H     -1.4476234674      1.2596710147      2.7723861768
 H      7.0878773940      1.8458786391      3.5283084474
60
# ORCA AIMD Position Step 61, t=30.50 fs, E_Pot=-1525.77658754 Hartree, Unit is Angstrom
 H      2.9369442449     -0.0725968660      1.0792592612
 H     -1.2277997923      6.8006804627      1.5444730285
 H     -0.8811365052      2.1703563312      1.3688632312
 H      6.4395505526      1.9144276795      1.4407360905
 H      2.5781953385      4.5377326143      1.0216369765
 H      4.8795815857     -0.0198581736      4.8151760502
 H      1.2351754362      6.5712147193      4.7851294673
 H     -2.0172446010      4.3405021678      4.8322839469
 H      4.3766292698      3.9826661082      4.8466806731
 H      1.3702223036      2.1272472180      4.7980110341
 H      3.5879679014      0.2254554482     -0.2487477328
 H     -0.8779969173      5.9830323916      0.2755538841
 H     -0.8637411764      2.9274015259      0.1692469892
 H      5.2422384233      2.1988015670      0.5181772045
 H      2.2073389341      3.3679376027      0.2372804997
 H      4.1818687668     -0.3052725469      3.4738189760
 H      0.7104913121      6.5894706580      3.3713856373
 H     -2.2918342900      3.5753044750      3.5133560690
 H      5.2143491425      3.6468079433      3.5669299041
 H      1.6973303775      2.9275707161      3.4216689507
 H      0.8838063717      5.6635019090      6.8246042762
 H     -2.5408616503      5.2941926691      6.7797492290
 H      0.4918848122      2.2652439444      6.8012562871
 H      5.6028859650      0.5523408861      7.1138596975
 H      1.5923759320      1.2358370964      7.0147162387
 H      4.6461287179      5.2949374340      6.9813785064
 H      2.0572124215      0.6430789608      3.4738408920
 H      5.6681866399      1.1641671275      3.4025241827
 H      3.3939437788      4.1030229983      3.3926383567
 H     -1.5583049186      5.5825267038      3.4012352825
 H      2.0637588992      4.9606148359      3.4499713066
 H     -0.2296796664      1.9968748067      3.4601969788
 O      2.6829461838      0.0977433726      0.1061307819
 O     -1.2979325214      6.8475895695      0.4689449853
 O     -1.1082293966      2.0489458428      0.4241894646
 O      6.2218171767      2.0369682631      0.4392693540
 O      2.3855477431      4.2931148476      0.0848837251
 O      5.0869872580     -0.1064926894      3.8511364885
 O      1.5728962996      6.4390668274      3.8827587545
 O     -2.4173751288      4.4720102744      3.9406544013
 O      4.7868904141      4.4194205928      4.0512756922
 O      1.2789059114      2.0261159645      3.8158520707
 O      4.8490149674     -0.0180739775      6.7697679214
 O      0.9101146910      6.6336800499      6.7435289025
 O     -2.4230422248      4.3439613285      6.7787057079
 O      4.9610444830      4.4048266129      6.7898234310
 O      1.4310652453      2.1118158050      6.6281435604
 O      2.5094149151     -0.2391659986      3.2059245935
 O     -1.0459527800      6.4917956775      3.1963181542
 O     -1.2103207887      2.0981017523      3.1487729203
 O      6.1982888957      2.0459502799      3.2051615667
 O      2.3931566130      4.1079584669      3.0793846177
 H      5.2912189993     -0.8935729253      6.7599049439
 H      1.8625585370      6.8173545713      6.7229269868
 H     -3.2673164805      4.0927721132      6.3612964924
 H      5.5995340549      4.6289955654      6.0783930190
 H      1.8490685256     -0.7726131609      2.7898402312
 H     -1.7142297786      7.1689184738      3.4307365108
 H     -1.4400311552      1.2631239380      2.7664321500
 H      7.0753443300      1.8406854947      3.5290022222
60
# ORCA AIMD Position Step 62, t=31.00 fs, E_Pot=-1525.77711703 Hartree, Unit is Angstrom
 H      2.9357869319     -0.0696303614      1.0635198648
 H     -1.2279483772      6.7929946924      1.5315096782
 H     -0.8815382662      2.1776874803      1.3553069211
 H      6.4200667257      1.9160000479      1.4396511492
 H      2.5793261144      4.5324628839      1.0078713291
 H      4.8888873886     -0.0217727380      4.8096206038
 H      1.2334835087      6.5732900607      4.7748384992
 H     -2.0186192619      4.3481791601      4.8248147594
 H      4.3714021886      3.9810816608      4.8333135972
 H      1.3780584749      2.1286736087      4.7907230452
 H      3.5818949355      0.2325127703     -0.2462447325
 H     -0.8953001058      5.9890935957      0.2648619682
 H     -0.8485033470      2.9246174121      0.1658190318
 H      5.2514921220      2.1851869193      0.5258623900
 H      2.2082556858      3.3657362505      0.2244792670
 H      4.1868188587     -0.3071765793      3.4826340609
 H      0.7209330377      6.5849178454      3.3677085001
 H     -2.2832186833      3.5692858484      3.5312914665
 H      5.2169242732      3.6633360206      3.5787722992
 H      1.7086016022      2.9349374546      3.4195532344
 H      0.8780968799      5.6744863520      6.8228877481
 H     -2.5437889361      5.2931439978      6.7713550400
 H      0.4985222134      2.2549734163      6.8015445140
 H      5.5879682144      0.5399165586      7.1054668313
 H      1.5872506856      1.2443643395      7.0120107551
 H      4.6588827669      5.2975742181      6.9792713686
 H      2.0585031647      0.6393373232      3.4879233152
 H      5.6580171982      1.1624451966      3.4119795782
 H      3.3829618031      4.0987902561      3.3991067285
 H     -1.5474749176      5.5788839787      3.4064419988
 H      2.0547237244      4.9579321144      3.4522695519
 H     -0.2243668800      1.9807977111      3.4569941988
 O      2.6875786554      0.0996860152      0.1018851346
 O     -1.2964187605      6.8504478643      0.4691776089
 O     -1.1055996194      2.0476944202      0.4232614915
 O      6.2182498346      2.0348826236      0.4381225822
 O      2.3823046275      4.2899786710      0.0812887414
 O      5.0859021053     -0.1092058595      3.8492681755
 O      1.5762710374      6.4371357997      3.8814551340
 O     -2.4154213849      4.4720656469      3.9386425137
 O      4.7840158172      4.4163376841      4.0513567208
 O      1.2795055106      2.0240480892      3.8128988027
 O      4.8468160904     -0.0180784989      6.7726586684
 O      0.9054780876      6.6335379053      6.7454271338
 O     -2.4222646048      4.3435032724      6.7814475529
 O      4.9599057896      4.4071577435      6.7928357406
 O      1.4330901624      2.1101359574      6.6283189288
 O      2.5074627962     -0.2427607040      3.2075663226
 O     -1.0440952189      6.4921051798      3.2001996720
 O     -1.2099211136      2.0966238585      3.1522014021
 O      6.1972144011      2.0442659887      3.2088827870
 O      2.3904656373      4.1040528676      3.0789136114
 H      5.2838336246     -0.8856051677      6.7526020865
 H      1.8526216425      6.8014561599      6.7226325766
 H     -3.2453029575      4.0905835646      6.3529967043
 H      5.5835073384      4.6073356864      6.0738005880
 H      1.8528554228     -0.7753703179      2.7712485301
 H     -1.7032368552      7.1535693427      3.4421510956
 H     -1.4337565997      1.2633513530      2.7593396330
 H      7.0648448211      1.8354199167      3.5304887295
60
# ORCA AIMD Position Step 63, t=31.50 fs, E_Pot=-1525.77521759 Hartree, Unit is Angstrom
 H      2.9332051423     -0.0659499619      1.0456796235
 H     -1.2283473828      6.7856337000      1.5122087767
 H     -0.8820348995      2.1842865496      1.3438635563
 H      6.3999091503      1.9183263545      1.4349881916
 H      2.5803822061      4.5277687522      0.9945283110
 H      4.8984158349     -0.0234423287      4.8046677507
 H      1.2312190976      6.5755251472      4.7666932312
 H     -2.0199656760      4.3557272265      4.8182589913
 H      4.3670698105      3.9796996044      4.8203630390
 H      1.3859780812      2.1298262634      4.7839738047
 H      3.5767606979      0.2398024499     -0.2448155796
 H     -0.9121556418      5.9947965061      0.2535707488
 H     -0.8326145759      2.9249685606      0.1596366854
 H      5.2611726459      2.1719362667      0.5329125365
 H      2.2083530659      3.3599453152      0.2113461950
 H      4.1908187220     -0.3091850672      3.4909471711
 H      0.7323826117      6.5801716491      3.3646889136
 H     -2.2738167019      3.5635441068      3.5490285312
 H      5.2210636674      3.6789299197      3.5908221549
 H      1.7200300525      2.9417859826      3.4178821832
 H      0.8721625164      5.6836394805      6.8213839849
 H     -2.5463180091      5.2948801228      6.7634692661
 H      0.5032332298      2.2451348278      6.8022588625
 H      5.5720337792      0.5275589124      7.0966947551
 H      1.5829768415      1.2509899998      7.0099492672
 H      4.6705247729      5.3021607266      6.9780343039
 H      2.0599587663      0.6345698158      3.5007609860
 H      5.6487267925      1.1619040792      3.4212437402
 H      3.3692628282      4.0957087793      3.4040753865
 H     -1.5356332997      5.5775956565      3.4109450769
 H      2.0447011136      4.9574438074      3.4551517344
 H     -0.2202492564      1.9654321334      3.4533800157
 O      2.6922625793      0.1016106367      0.0978664479
 O     -1.2949011834      6.8532981263      0.4698038575
 O     -1.1029893429      2.0463233183      0.4223215447
 O      6.2146537612      2.0327352926      0.4372125314
 O      2.3790904413      4.2869913461      0.0777032428
 O      5.0848214096     -0.1119725494      3.8474382353
 O      1.5795884919      6.4352161485      3.8800006359
 O     -2.4134926830      4.4720467999      3.9366054789
 O      4.7810904558      4.4132116321      4.0514408402
 O      1.2801175183      2.0219714831      3.8099449150
 O      4.8446757077     -0.0180293043      6.7755514444
 O      0.9007554551      6.6334591471      6.7472920678
 O     -2.4213851241      4.3429574666      6.7841968561
 O      4.9587912987      4.4093795301      6.7958441147
 O      1.4351713676      2.1085672834      6.6284147178
 O      2.5056477455     -0.2461980141      3.2093179825
 O     -1.0422507895      6.4922389401      3.2041068581
 O     -1.2094151022      2.0953118051      3.1557791198
 O      6.1958883433      2.0426083258      3.2125582667
 O      2.3879694392      4.1000056572      3.0784087435
 H      5.2763566133     -0.8786131740      6.7452968942
 H      1.8443881976      6.7861902444      6.7225407485
 H     -3.2250379082      4.0870198816      6.3439126605
 H      5.5683196541      4.5854161288      6.0684650966
 H      1.8544656506     -0.7795897930      2.7514205006
 H     -1.6929112688      7.1392951088      3.4539879399
 H     -1.4288855378      1.2605539240      2.7510957050
 H      7.0574616724      1.8298078768      3.5331188947
60
# ORCA AIMD Position Step 64, t=32.00 fs, E_Pot=-1525.77174497 Hartree, Unit is Angstrom
 H      2.9295018832     -0.0618084224      1.0271438160
 H     -1.2289681866      6.7787096385      1.4877430936
 H     -0.8824073881      2.1902239086      1.3357982829
 H      6.3796871015      1.9212499008      1.4273649518
 H      2.5815558935      4.5238254139      0.9825218178
 H      4.9080377759     -0.0248469648      4.8008352881
 H      1.2282628044      6.5779769684      4.7611517145
 H     -2.0209946802      4.3631851238      4.8133167308
 H      4.3631610408      3.9780487912      4.8087294496
 H      1.3938924716      2.1306713358      4.7780277325
 H      3.5737125674      0.2475137099     -0.2449905623
 H     -0.9282410557      5.9993738291      0.2414255982
 H     -0.8162873319      2.9276145897      0.1508349051
 H      5.2695504966      2.1593466425      0.5391309211
 H      2.2076931308      3.3507146885      0.1979142023
 H      4.1930356248     -0.3114786748      3.4983716034
 H      0.7443260146      6.5753497099      3.3619636477
 H     -2.2636758130      3.5579167015      3.5662662932
 H      5.2274993098      3.6922598869      3.6021487620
 H      1.7313679318      2.9478123376      3.4166611794
 H      0.8657416675      5.6896801369      6.8201978411
 H     -2.5483984121      5.2990317342      6.7561140803
 H      0.5055233935      2.2359612027      6.8033933321
 H      5.5569021391      0.5167419909      7.0883978115
 H      1.5799321806      1.2545550933      7.0090012146
 H      4.6810557867      5.3090116024      6.9776708992
 H      2.0614513408      0.6287164953      3.5121851822
 H      5.6405050729      1.1627462572      3.4301690192
 H      3.3533940492      4.0937271059      3.4075827962
 H     -1.5228468634      5.5786220442      3.4146834081
 H      2.0338953443      4.9586770709      3.4584141772
 H     -0.2174546941      1.9510372222      3.4494136904
 O      2.6969070743      0.1035212760      0.0940196053
 O     -1.2934032130      6.8561842807      0.4707694657
 O     -1.1003984844      2.0448804166      0.4212841829
 O      6.2111028244      2.0305167620      0.4365163273
 O      2.3758889357      4.2841323740      0.0740668990
 O      5.0838014566     -0.1147835615      3.8456403225
 O      1.5828865988      6.4332945772      3.8783881989
 O     -2.4116039229      4.4719569923      3.9345195970
 O      4.7780944491      4.4101573723      4.0515325042
 O      1.2807591409      2.0199026396      3.8069738533
 O      4.8424571722     -0.0179609216      6.7783949376
 O      0.8959136546      6.6335047989      6.7491179009
 O     -2.4203364080      4.3423742508      6.7869931552
 O      4.9576687324      4.4114590402      6.7988876059
 O      1.4373174606      2.1071681787      6.6284021305
 O      2.5039333405     -0.2495206521      3.2111552870
 O     -1.0403360137      6.4921225165      3.2080100394
 O     -1.2087974510      2.0941130336      3.1594887430
 O      6.1942580869      2.0409775950      3.2161790304
 O      2.3856241298      4.0958518716      3.0778784972
 H      5.2691619538     -0.8735285767      6.7379522208
 H      1.8386441975      6.7718644893      6.7226212222
 H     -3.2076696083      4.0816573430      6.3334092021
 H      5.5545056952      4.5634682358      6.0617740306
 H      1.8546070297     -0.7845318184      2.7308837986
 H     -1.6844504008      7.1273207352      3.4666728963
 H     -1.4253733127      1.2553854234      2.7419234914
 H      7.0538531615      1.8236597207      3.5370899277
60
# ORCA AIMD Position Step 65, t=32.50 fs, E_Pot=-1525.76825185 Hartree, Unit is Angstrom
 H      2.9250618668     -0.0575099959      1.0095968996
 H     -1.2297512361      6.7722806771      1.4598962465
 H     -0.8825101404      2.1956112517      1.3319836685
 H      6.3600608675      1.9245846783      1.4176929146
 H      2.5830182592      4.5207387222      0.9726544159
 H      4.9176434916     -0.0259794352      4.7985201246
 H      1.2246061049      6.5806517448      4.7583482946
 H     -2.0214874462      4.3706203628      4.8105298881
 H      4.3591982722      3.9756596350      4.7992596046
 H      1.4017115528      2.1311692397      4.7730671981
 H      3.5736372156      0.2558060057     -0.2471703561
 H     -0.9433504143      6.0022612948      0.2281904112
 H     -0.7998439817      2.9313929515      0.1397296142
 H      5.2749151383      2.1476817182      0.5443291848
 H      2.2064306869      3.3386851015      0.1841876026
 H      4.1928003545     -0.3141989116      3.5046192718
 H      0.7561739922      6.5705821292      3.3591226287
 H     -2.2528543046      3.5522901079      3.5827446794
 H      5.2369095782      3.7021674729      3.6119457288
 H      1.7423838481      2.9527555833      3.4158751041
 H      0.8586048762      5.6917075316      6.8194004762
 H     -2.5499779750      5.3049138863      6.7493068744
 H      0.5052226037      2.2276063052      6.8048929381
 H      5.5445217536      0.5090008578      7.0814539087
 H      1.5783911113      1.2542999228      7.0094673020
 H      4.6906194281      5.3180858144      6.9780771067
 H      2.0628238672      0.6218104573      3.5220664530
 H      5.6334905770      1.1650871266      3.4386281818
 H      3.3361233734      4.0927717497      3.4097609772
 H     -1.5092386863      5.5818006867      3.4176280933
 H      2.0225606077      4.9610518978      3.4618052626
 H     -0.2160225038      1.9378393507      3.4451835778
 O      2.7014326363      0.1054271178      0.0902636157
 O     -1.2919429000      6.8591408630      0.4719804874
 O     -1.0978152457      2.0434316978      0.4200769399
 O      6.2076664516      2.0282213562      0.4359918029
 O      2.3726791870      4.2813544098      0.0703281836
 O      5.0828874260     -0.1176315331      3.8438695896
 O      1.5862011091      6.4313596830      3.8766339072
 O     -2.4097660115      4.4717945606      3.9323686864
 O      4.7750119437      4.4072792838      4.0516313565
 O      1.2814460078      2.0178549598      3.8039753653
 O      4.8400204054     -0.0179241504      6.7811368943
 O      0.8909393560      6.6337182830      6.7509000002
 O     -2.4190793621      4.3418130231      6.7898641629
 O      4.9565106770      4.4133889087      6.8019987527
 O      1.4395231122      2.1059769350      6.6282660350
 O      2.5022761806     -0.2527838679      3.2130422631
 O     -1.0382776660      6.4917056114      3.2118809771
 O     -1.2080738426      2.0929561640      3.1632996204
 O      6.1923098296      2.0393720190      3.2197478117
 O      2.3833692289      4.0916356420      3.0773291852
 H      5.2625461549     -0.8710853778      6.7305249099
 H      1.8358307585      6.7586842646      6.7228557150
 H     -3.1938956746      4.0742432896      6.3210423998
 H      5.5423782960      4.5416725591      6.0533268014
 H      1.8541242498     -0.7893533244      2.7103149960
 H     -1.6788227471      7.1186189552      3.4805797278
 H     -1.4230844027      1.2488139814      2.7322331319
 H      7.0541078493      1.8169156143      3.5423929205
60
# ORCA AIMD Position Step 66, t=33.00 fs, E_Pot=-1525.76603666 Hartree, Unit is Angstrom
 H      2.9203176329     -0.0533761848      0.9948320257
 H     -1.2305940459      6.7663073138      1.4311683338
 H     -0.8823087982      2.2005598150      1.3327170619
 H      6.3416984223      1.9281277334      1.4071399354
 H      2.5848860011      4.5185135588      0.9654872713
 H      4.9271457936     -0.0268502456      4.7979423022
 H      1.2203615120      6.5834979040      4.7580766126
 H     -2.0213308771      4.3781275869      4.8101961118
 H      4.3547733215      3.9721297299      4.7926221327
 H      1.4093419703      2.1312724793      4.7691736338
 H      3.5769831976      0.2647687222     -0.2515429520
 H     -0.9574235775      6.0032035389      0.2136966084
 H     -0.7836630451      2.9350276539      0.1267618372
 H      5.2758600412      2.1371343971      0.5483118441
 H      2.2047841644      3.3248596123      0.1701708219
 H      4.1897153487     -0.3174222935      3.5095421942
 H      0.7673196192      6.5660020039      3.3557511165
 H     -2.2414218473      3.5466189584      3.5982546320
 H      5.2497514500      3.7079011155      3.6196950095
 H      1.7528647556      2.9563963363      3.4154921995
 H      0.8505799426      5.6893953305      6.8190172044
 H     -2.5510151114      5.3116492289      6.7430627212
 H      0.5025186938      2.2201376387      6.8066523092
 H      5.5366037116      0.5056377033      7.0765990220
 H      1.5784913659      1.2500357332      7.0114033595
 H      4.6994756492      5.3290005883      6.9790511508
 H      2.0638957178      0.6139820839      3.5303211105
 H      5.6277607904      1.1689454298      3.4465205955
 H      3.3184354318      4.0927586966      3.4108420717
 H     -1.4950013233      5.5868235317      3.4197909734
 H      2.0109742798      4.9639565226      3.4650592268
 H     -0.2159029433      1.9260269420      3.4408027915
 O      2.7057845032      0.1073429441      0.0864970937
 O     -1.2905317439      6.8621888979      0.4732935763
 O     -1.0952171192      2.0420507595      0.4186552563
 O      6.2043941169      2.0258488390      0.4355806795
 O      2.3694395197      4.2785933249      0.0664507676
 O      5.0821065092     -0.1205120365      3.8421235537
 O      1.5895614461      6.4294031501      3.8747755723
 O     -2.4079833196      4.4715520960      3.9301487661
 O      4.7718368184      4.4046517800      4.0517296139
 O      1.2821922186      2.0158388687      3.8009464674
 O      4.8372478200     -0.0179759303      6.7837332504
 O      0.8858430314      6.6341138752      6.7526353605
 O     -2.4176119279      4.3413302153      6.7928174475
 O      4.9552994765      4.4151860339      6.8051971000
 O      1.4417690474      2.1050013635      6.6280098014
 O      2.5006350766     -0.2560472971      3.2149376319
 O     -1.0360263486      6.4909769127      3.2156988185
 O     -1.2072579627      2.0917626279      3.1671731180
 O      6.1900703283      2.0377872113      3.2232792950
 O      2.3811298017      4.0874048173      3.0767624744
 H      5.2566823712     -0.8716869097      6.7229852569
 H      1.8359549180      6.7467419866      6.7232428262
 H     -3.1838117401      4.0647641663      6.3066883879
 H      5.5319761883      4.5201656633      6.0430272561
 H      1.8538469293     -0.7932402073      2.6904328087
 H     -1.6765466599      7.1136964581      3.4959284508
 H     -1.4218398253      1.2419405561      2.7225416746
 H      7.0577278291      1.8096614803      3.5488071936
60
# ORCA AIMD Position Step 67, t=33.50 fs, E_Pot=-1525.76532455 Hartree, Unit is Angstrom
 H      2.9156907219     -0.0496917394      0.9844748405
 H     -1.2313467305      6.7606125989      1.4047390275
 H     -0.8818916213      2.2051497301      1.3376632423
 H      6.3252218803      1.9316777704      1.3970441291
 H      2.5871926990      4.5170336643      0.9612342623
 H      4.9364800081     -0.0274913719      4.7991105302
 H      1.2157475986      6.5864109401      4.7598338432
 H     -2.0205361982      4.3858218933      4.8123181327
 H      4.3496219643      3.9671898939      4.7891918735
 H      1.4166870086      2.1309253810      4.7663241643
 H      3.5836658439      0.2743912338     -0.2580339820
 H     -0.9705521531      6.0023123040      0.1978867857
 H     -0.7681190422      2.9373163070      0.1124347735
 H      5.2715744430      2.1277967836      0.5508595600
 H      2.2029996701      3.3104232413      0.1558913538
 H      4.1837237295     -0.3211442739      3.5131542427
 H      0.7772107533      6.5617338483      3.3514806689
 H     -2.2294574808      3.5409327755      3.6126435223
 H      5.2661060012      3.7092905367      3.6252852878
 H      1.7626216724      2.9585618355      3.4154655930
 H      0.8415681340      5.6830702476      6.8190252845
 H     -2.5514898744      5.3183064217      6.7373929308
 H      0.4979198581      2.2135431461      6.8085249116
 H      5.5341762922      0.5073746921      7.0742409546
 H      1.5802275807      1.2421869624      7.0146010754
 H      4.7079586831      5.3411065849      6.9803198477
 H      2.0644763981      0.6054423850      3.5369126753
 H      5.6233232743      1.1742377228      3.4537779219
 H      3.3014880277      4.0936067268      3.4111485787
 H     -1.4804027390      5.5932229922      3.4212297876
 H      1.9994119136      4.9668095066      3.4679251823
 H     -0.2169655403      1.9157459842      3.4364026149
 O      2.7099424036      0.1092876831      0.0826126308
 O     -1.2891745108      6.8653345973      0.4745154807
 O     -1.0925740175      2.0408089867      0.4170101019
 O      6.2013001081      2.0234051911      0.4352149409
 O      2.3661516102      4.2757808692      0.0624187797
 O      5.0814635550     -0.1234241435      3.8404028283
 O      1.5929871047      6.4274203539      3.8728668925
 O     -2.4062524171      4.4712165167      3.9278708213
 O      4.7685777201      4.4023037207      4.0518118748
 O      1.2830102214      2.0138619724      3.7978916140
 O      4.8340738391     -0.0181625469      6.7861586243
 O      0.8806581460      6.6346711891      6.7543226314
 O     -2.4159687300      4.3409694157      6.7958372104
 O      4.9540299698      4.4168857801      6.8084852079
 O      1.4440248097      2.1042156959      6.6276558917
 O      2.4989768467     -0.2593682229      3.2168003596
 O     -1.0335651870      6.4899730360      3.2194549474
 O     -1.2063686178      2.0904573010      3.1710681087
 O      6.1876001263      2.0362177048      3.2267972692
 O      2.3788206759      4.0832060079      3.0761741590
 H      5.2515972546     -0.8753251085      6.7153357419
 H      1.8385862007      6.7360261553      6.7237997308
 H     -3.1769064213      4.0534642089      6.2905960102
 H      5.5230629439      4.4990573845      6.0311201608
 H      1.8544867294     -0.7954997123      2.6719075495
 H     -1.6775512394      7.1124656650      3.5127047559
 H     -1.4214569468      1.2358341234      2.7133901192
 H      7.0637459634      1.8021083393      3.5559437008
60
# ORCA AIMD Position Step 68, t=34.00 fs, E_Pot=-1525.76536914 Hartree, Unit is Angstrom
 H      2.9115212863     -0.0466395362      0.9796390988
 H     -1.2318239451      6.7548686555      1.3841539167
 H     -0.8814469449      2.2094135896      1.3459277936
 H      6.3111513945      1.9350555144      1.3887672700
 H      2.5898737226      4.5160616802      0.9597233967
 H      4.9455979959     -0.0279569998      4.8018188823
 H      1.2110570940      6.5892470286      4.7629121549
 H     -2.0192359024      4.3938244372      4.8166011689
 H      4.3436816193      3.9607570445      4.7889730053
 H      1.4236456793      2.1300650220      4.7643928489
 H      3.5930956759      0.2845525853     -0.2663101858
 H     -0.9829449949      6.0000365782      0.1808434692
 H     -0.7535422693      2.9372513051      0.0972598677
 H      5.2620288717      2.1196534844      0.5517255120
 H      2.2013162517      3.2965615908      0.1414137291
 H      4.1751228413     -0.3252773807      3.5156236552
 H      0.7854294091      6.5578815345      3.3460446255
 H     -2.2170503828      3.5353372395      3.6258122418
 H      5.2855981787      3.7067772582      3.6290264276
 H      1.7714874989      2.9591180275      3.4157391984
 H      0.8315495776      5.6736328008      6.8193628334
 H     -2.5514086784      5.3240195444      6.7323043130
 H      0.4921651253      2.2077505202      6.8103394586
 H      5.5372671381      0.5141104741      7.0743425871
 H      1.5834727764      1.2316909114      7.0186315880
 H      4.7164226752      5.3536060629      6.9815743282
 H      2.0643707185      0.5964806687      3.5418517236
 H      5.6201063652      1.1807688363      3.4603684650
 H      3.2865242917      4.0952499049      3.4110626407
 H     -1.4657970875      5.6003557846      3.4220550519
 H      1.9881308398      4.9690998138      3.4701857280
 H     -0.2189997644      1.9070995470      3.4321280083
 O      2.7139231929      0.1112809720      0.0785186938
 O     -1.2878706273      6.8685720163      0.4754208716
 O     -1.0898522610      2.0397689048      0.4151667918
 O      6.1983552260      2.0209018012      0.4348262151
 O      2.3628036840      4.2728561453      0.0582384128
 O      5.0809407874     -0.1263701354      3.8387117371
 O      1.5964847563      6.4254105332      3.8709683745
 O     -2.4045617165      4.4707702486      3.9255610039
 O      4.7652592242      4.4002128573      4.0518590523
 O      1.2839110159      2.0119292358      3.7948222897
 O      4.8305043925     -0.0185042198      6.7884126988
 O      0.8754351886      6.6353384590      6.7559618116
 O     -2.4142115741      4.3407562543      6.7988868109
 O      4.9527090950      4.4185327209      6.8118488867
 O      1.4462530375      2.1035656744      6.6272421160
 O      2.4972800061     -0.2627973173      3.2185941624
 O     -1.0309081346      6.4887769790      3.2231540017
 O     -1.2054278219      2.0889764438      3.1749455327
 O      6.1849812458      2.0346601316      3.2303297051
 O      2.3763533092      4.0790813064      3.0755546816
 H      5.2471798989     -0.8815816081      6.7076256477
 H      1.8429455560      6.7264490798      6.7245588070
 H     -3.1722084258      4.0408077919      6.2733471495
 H      5.5151877552      4.4784599625      6.0181512920
 H      1.8565707779     -0.7956218459      2.6552908953
 H     -1.6812024203      7.1142797449      3.5306399561
 H     -1.4217785402      1.2314076587      2.7052743103
 H      7.0709324138      1.7945458081      3.5633220990
60
# ORCA AIMD Position Step 69, t=34.50 fs, E_Pot=-1525.76531531 Hartree, Unit is Angstrom
 H      2.9080101117     -0.0442481517      0.9806375148
 H     -1.2318446913      6.7486534503      1.3725965442
 H     -0.8812194906      2.2133473226      1.3562478357
 H      6.2998539306      1.9381274489      1.3834972431
 H      2.5927715112      4.5152612118      0.9604335634
 H      4.9544620976     -0.0283200736      4.8056811215
 H      1.2066133760      6.5918427225      4.7665093172
 H     -2.0176578300      4.4022477279      4.8225062710
 H      4.3371007201      3.9529481858      4.7915986136
 H      1.4301156956      2.1286247676      4.7631718389
 H      3.6043171140      0.2950388896     -0.2758351466
 H     -0.9948823115      5.9970740027      0.1627908674
 H     -0.7401848015      2.9340906696      0.0817107783
 H      5.2479710893      2.1125961296      0.5506565984
 H      2.1999414913      3.2843187075      0.1268386468
 H      4.1645031881     -0.3296654988      3.5172388931
 H      0.7917553049      6.5545182335      3.3393218640
 H     -2.2042948267      3.5299963679      3.6377090663
 H      5.3074474728      3.7012737075      3.6315485726
 H      1.7793219626      2.9579742953      3.4162488259
 H      0.8205750335      5.6623631701      6.8199441783
 H     -2.5508065199      5.3280785673      6.7277962215
 H      0.4861031157      2.2026495437      6.8119203302
 H      5.5449046111      0.5249268925      7.0764459531
 H      1.5880167991      1.2197939606      7.0229359457
 H      4.7251992313      5.3656757074      6.9825058134
 H      2.0633928149      0.5874387893      3.5451906181
 H      5.6179568786      1.1882391396      3.4662985974
 H      3.2747188739      4.0976461181      3.4109665551
 H     -1.4516123028      5.6074208886      3.4224257872
 H      1.9773589210      4.9704046313      3.4716671477
 H     -0.2217261973      1.9001464947      3.4281302024
 O      2.7177757697      0.1133387758      0.0741614219
 O     -1.2866145433      6.8718850792      0.4757978409
 O     -1.0870195325      2.0389789722      0.4131760148
 O      6.1954901932      2.0183531240      0.4343568937
 O      2.3593917740      4.2697732395      0.0539357071
 O      5.0805019062     -0.1293548713      3.8370582493
 O      1.6000469894      6.4233764781      3.8691377060
 O     -2.4028932308      4.4701932041      3.9232576079
 O      4.7619180935      4.3983136177      4.0518548853
 O      1.2849039208      2.0100429535      3.7917556633
 O      4.8266146366     -0.0189903365      6.7905186421
 O      0.8702330979      6.6360428756      6.7575537383
 O     -2.4124149848      4.3406978774      6.8019165950
 O      4.9513529282      4.4201718492      6.8152610338
 O      1.4484146676      2.1029799393      6.6268146568
 O      2.4955354603     -0.2663756640      3.2202906105
 O     -1.0280906490      6.4875065061      3.2268111509
 O     -1.2044593079      2.0872723925      3.1787716717
 O      6.1823041944      2.0331161665      3.2339038162
 O      2.3736459295      4.0750661337      3.0748919625
 H      5.2432173029     -0.8897099367      6.6999515339
 H      1.8480492146      6.7178775519      6.7255613918
 H     -3.1685144333      4.0273975161      6.2557358463
 H      5.5077755170      4.4585048389      6.0048705071
 H      1.8604188272     -0.7933016760      2.6409714055
 H     -1.6864657640      7.1180971251      3.5492616814
 H     -1.4226875620      1.2293477555      2.6985969484
 H      7.0780050231      1.7872886060      3.5704490820
60
# ORCA AIMD Position Step 70, t=35.00 fs, E_Pot=-1525.76470692 Hartree, Unit is Angstrom
 H      2.9052072456     -0.0423761734      0.9868782460
 H     -1.2312906839      6.7415879307      1.3718962435
 H     -0.8814563082      2.2169280656      1.3672122878
 H      6.2915102397      1.9408193751      1.3820291221
 H      2.5956562790      4.5142358356      0.9625928110
 H      4.9630345205     -0.0286672843      4.8101844634
 H      1.2027288104      6.5940360744      4.7698387157
 H     -2.0160846500      4.4111782210      4.8293369929
 H      4.3302083625      3.9440587587      4.7964009874
 H      1.4359970976      2.1265395510      4.7624059626
 H      3.6162055899      0.3055763567     -0.2859604074
 H     -1.0066530903      5.9942389685      0.1440713723
 H     -0.7282091999      2.9273883609      0.0661931475
 H      5.2307400316      2.1064603659      0.5474322149
 H      2.1990350238      3.2745066984      0.1122958615
 H      4.1526475446     -0.3341085640      3.5183569455
 H      0.7961983949      6.5516790126      3.3313635419
 H     -2.1912895070      3.5251147984      3.6483154622
 H      5.3306056517      3.6939278761      3.6336318868
 H      1.7860141206      2.9550861281      3.4169245444
 H      0.8087498933      5.6506902017      6.8206774456
 H     -2.5497430376      5.3299811213      6.7238613071
 H      0.4805799622      2.1981167898      6.8131063846
 H      5.5554353855      0.5383449750      7.0798256466
 H      1.5936103267      1.2078310268      7.0269232675
 H      4.7345596964      5.3765651290      6.9828357217
 H      2.0613837242      0.5786783334      3.5470104512
 H      5.6166424373      1.1962489099      3.4716110841
 H      3.2669893033      4.1007761538      3.4111678124
 H     -1.4383270091      5.6135105326      3.4225388949
 H      1.9672906395      4.9703951937      3.4722409182
 H     -0.2248156760      1.8949057147      3.4245591405
 O      2.7215693527      0.1154702829      0.0695368882
 O     -1.2853960226      6.8752473385      0.4755116113
 O     -1.0840489991      2.0384704691      0.4111019508
 O      6.1926094650      2.0157735046      0.4337714864
 O      2.3559195170      4.2665045316      0.0495508226
 O      5.0800991304     -0.1323843184      3.8354537819
 O      1.6036527267      6.4213240168      3.8674212195
 O     -2.4012246305      4.4694651572      3.9210064166
 O      4.7585960924      4.3965132260      4.0517921450
 O      1.2859964511      2.0082025821      3.7887124338
 O      4.8225258848     -0.0195872603      6.7925138630
 O      0.8651108879      6.6367030264      6.7590994526
 O     -2.4106522365      4.3407855155      6.8048722094
 O      4.9499826274      4.4218415478      6.8186868086
 O      1.4504731870      2.1023823353      6.6264205739
 O      2.4937461485     -0.2701319909      3.2218715250
 O     -1.0251565095      6.4862956525      3.2304473008
 O     -1.2034870396      2.0853158375      3.1825203359
 O      6.1796565630      2.0315948881      3.2375421181
 O      2.3706357703      4.0711883364      3.0741757399
 H      5.2394437291     -0.8987677104      6.6924508240
 H      1.8528575744      6.7101661234      6.7268519020
 H     -3.1646170502      4.0138820482      6.2386355763
 H      5.5002306016      4.4393565440      5.9921200698
 H      1.8661328144     -0.7884516741      2.6291499586
 H     -1.6921422479      7.1227188553      3.5679858988
 H     -1.4241163521      1.2300773112      2.6936393086
 H      7.0838094779      1.7806311120      3.5768848077
60
# ORCA AIMD Position Step 71, t=35.50 fs, E_Pot=-1525.76330234 Hartree, Unit is Angstrom
 H      2.9030425865     -0.0407445269      0.9970097970
 H     -1.2301488460      6.7334938873      1.3818282303
 H     -0.8823698245      2.2201387329      1.3774554385
 H      6.2861078694      1.9431249595      1.3846057903
 H      2.5982611712      4.5125758898      0.9653133266
 H      4.9712751650     -0.0290911202      4.8147593256
 H      1.1996756120      6.5956821373      4.7722001594
 H     -2.0148129644      4.4206687559      4.8363365528
 H      4.3234429220      3.9345057702      4.8025317606
 H      1.4411973068      2.1237510083      4.7618189479
 H      3.6276505630      0.3158738372     -0.2960156649
 H     -1.0185156560      5.9923327492      0.1251028909
 H     -0.7176723228      2.9169975075      0.0510169421
 H      5.2119840979      2.1010587503      0.5419086462
 H      2.1987034461      3.2676553360      0.0979303255
 H      4.1404161123     -0.3383905970      3.5193532446
 H      0.7989982781      6.5493623978      3.3223890116
 H     -2.1781296238      3.5209060553      3.6576373429
 H      5.3539344095      3.6859002568      3.6360516642
 H      1.7914844959      2.9504555861      3.4176918334
 H      0.7962130172      5.6399806176      6.8214767871
 H     -2.5483018737      5.3294669206      6.7204819543
 H      0.4763401735      2.1940315813      6.8137657585
 H      5.5669649543      0.5526800486      7.0836781132
 H      1.6000000238      1.1970387279      7.0300533157
 H      4.7447018977      5.3856770058      6.9823359507
 H      2.0582220497      0.5705540501      3.5474119653
 H      5.6158595773      1.2043198572      3.4763809641
 H      3.2638145298      4.1046373733      3.4118202727
 H     -1.4264209393      5.6177023930      3.4226040238
 H      1.9580850187      4.9688281792      3.4718221372
 H     -0.2279027743      1.8913575848      3.4215557917
 O      2.7253799972      0.1176772301      0.0646876318
 O     -1.2841999762      6.8786203196      0.4745512820
 O     -1.0809226806      2.0382556197      0.4090119341
 O      6.1896094793      2.0131746012      0.4330639475
 O      2.3523962819      4.2630409786      0.0451304374
 O      5.0796804504     -0.1354645848      3.8339119187
 O      1.6072692582      6.4192611866      3.8658496408
 O     -2.3995322885      4.4685679818      3.9188551078
 O      4.7553334625      4.3947094517      4.0516750512
 O      1.2871940042      2.0064045778      3.7857150951
 O      4.8183748447     -0.0202515397      6.7944393587
 O      0.8601201772      6.6372410786      6.7606000898
 O     -2.4089853765      4.3409973685      6.8077029667
 O      4.9486203357      4.4235691822      6.8220899509
 O      1.4523986748      2.1017025966      6.6261017837
 O      2.4919258716     -0.2740813835      3.2233310103
 O     -1.0221481269      6.4852764868      3.2340843404
 O     -1.2025343411      2.0830963612      3.1861742739
 O      6.1771161219      2.0301134546      3.2412602480
 O      2.3672902438      4.0674687158      3.0734022142
 H      5.2355887435     -0.9077620089      6.6852819245
 H      1.8564129781      6.7031755002      6.7284699747
 H     -3.1594632222      4.0008757595      6.2228713619
 H      5.4920155503      4.4212018713      5.9807145615
 H      1.8736034274     -0.7811935436      2.6198166226
 H     -1.6970718154      7.1269849598      3.5862163397
 H     -1.4260464548      1.2337499864      2.6905443458
 H      7.0874222246      1.7748155317      3.5822806612
60
# ORCA AIMD Position Step 72, t=36.00 fs, E_Pot=-1525.76101782 Hartree, Unit is Angstrom
 H      2.9013864561     -0.0389990026      1.0092346581
 H     -1.2285091053      6.7244685471      1.4001976815
 H     -0.8841123058      2.2229830845      1.3857890891
 H      6.2834591440      1.9450964379      1.3908671693
 H      2.6003162510      4.5099011860      0.9677169508
 H      4.9791379244     -0.0296826495      4.8188452772
 H      1.1976646870      6.5966656141      4.7730339688
 H     -2.0141163879      4.4307335964      4.8427767177
 H      4.3172758339      3.9247616235      4.8090914667
 H      1.4456363998      2.1202129351      4.7611475227
 H      3.6376936125      0.3256582935     -0.3053857818
 H     -1.0306667132      5.9920405164      0.1063275432
 H     -0.7085194982      2.9030664746      0.0363775830
 H      5.1933880510      2.0962111891      0.5340464068
 H      2.1989986592      3.2639918886      0.0838894962
 H      4.1286451827     -0.3423044259      3.5205780204
 H      0.8005807101      6.5475356496      3.3127563462
 H     -2.1649025215      3.5175662555      3.6656931053
 H      5.3763473503      3.6782093550      3.6394675496
 H      1.7956875971      2.9441340214      3.4184725024
 H      0.7831171282      5.6313984259      6.8222708540
 H     -2.5465872772      5.3265276826      6.7176295714
 H      0.4739616783      2.1902888716      6.8138057133
 H      5.5777187524      0.5663399997      7.0872701076
 H      1.6069548095      1.1884365212      7.0318886801
 H      4.7557428249      5.3926119935      6.9808408657
 H      2.0538402376      0.5633764953      3.5465001682
 H      5.6152526799      1.2119234305      3.4807062467
 H      3.2651325805      4.1092285840      3.4128788699
 H     -1.4163110499      5.6191949599      3.4228100745
 H      1.9498650238      4.9655391618      3.4703653946
 H     -0.2306124640      1.8894498166      3.4192432138
 O      2.7292780350      0.1199555299      0.0596877199
 O     -1.2830085922      6.8819554309      0.4730278827
 O     -1.0776334076      2.0383267663      0.4069693686
 O      6.1863948334      2.0105640440      0.4322592472
 O      2.3488351560      4.2593907584      0.0407206263
 O      5.0791961594     -0.1386009116      3.8324469684
 O      1.6108562608      6.4171973194      3.8644364758
 O     -2.3977936598      4.4674874991      3.9168483775
 O      4.7521645672      4.3928047380      4.0515180029
 O      1.2884995546      2.0046421625      3.7827858411
 O      4.8142884972     -0.0209409694      6.7963315304
 O      0.8553006279      6.6375907484      6.7620567504
 O     -2.4074599459      4.3413013677      6.8103668158
 O      4.9472862000      4.4253690697      6.8254372584
 O      1.4541702207      2.1008829739      6.6258910928
 O      2.4900979277     -0.2782234615      3.2246772611
 O     -1.0191015773      6.4845616483      3.2377423933
 O     -1.2016223262      2.0806222607      3.1897263002
 O      6.1747458265      2.0286963671      3.2450661796
 O      2.3636132970      4.0639218896      3.0725769260
 H      5.2314151469     -0.9157722354      6.6786063009
 H      1.8579308840      6.6967866024      6.7304463767
 H     -3.1522424992      3.9889046976      6.2091426058
 H      5.4827072236      4.4042370980      5.9713592831
 H      1.8825162682     -0.7718503965      2.6127377074
 H     -1.7002748239      7.1299149802      3.6034193242
 H     -1.4285095410      1.2402511445      2.6893075266
 H      7.0882117447      1.7700135746      3.5864004615
60
# ORCA AIMD Position Step 73, t=36.50 fs, E_Pot=-1525.75826758 Hartree, Unit is Angstrom
 H      2.9001052139     -0.0367767848      1.0216536134
 H     -1.2265212483      6.7148314354      1.4236566146
 H     -0.8867657804      2.2254940526      1.3912771998
 H      6.2832373211      1.9468252535      1.3999359623
 H      2.6015778392      4.5058944510      0.9690345451
 H      4.9865703728     -0.0305249991      4.8219476685
 H      1.1968339729      6.5969088111      4.7719500872
 H     -2.0142188115      4.4413495596      4.8480264224
 H      4.3121444835      3.9152925335      4.8152383406
 H      1.4492516946      2.1158955827      4.7601680781
 H      3.6456090862      0.3347008093     -0.3135617916
 H     -1.0432289433      5.9938664977      0.0881627295
 H     -0.7005784243      2.8860290515      0.0223400576
 H      5.1764699236      2.0917631573      0.5239162792
 H      2.1999196803      3.2634368422      0.0703116569
 H      4.1180730187     -0.3456702022      3.5223262608
 H      0.8014898260      6.5461444431      3.3029133481
 H     -2.1516827593      3.5152494516      3.6725047927
 H      5.3968980208      3.6716614042      3.6443720026
 H      1.7986128100      2.9362221420      3.4191858143
 H      0.7696121391      5.6258257098      6.8230067114
 H     -2.5447215689      5.3214040771      6.7152632371
 H      0.4738153632      2.1868063020      6.8131781905
 H      5.5862436910      0.5779984929      7.0900163721
 H      1.6142821449      1.1827639124      7.0321215564
 H      4.7677211821      5.3971928814      6.9782520485
 H      2.0482367041      0.5573803608      3.5443711377
 H      5.6144440974      1.2185236373      3.4846937851
 H      3.2703600594      4.1145344560      3.4141036097
 H     -1.4082835584      5.6174565250      3.4232889314
 H      1.9427160020      4.9604380061      3.4678613492
 H     -0.2325891713      1.8891037585      3.4177175695
 O      2.7333194497      0.1222977448      0.0546242466
 O     -1.2818048667      6.8852014969      0.4711263274
 O     -1.0741858226      2.0386563258      0.4050300636
 O      6.1828889118      2.0079454842      0.4314077321
 O      2.3452509849      4.2555774917      0.0363613073
 O      5.0786034146     -0.1417971358      3.8310722843
 O      1.6143708034      6.4151420006      3.8631791519
 O     -2.3959891987      4.4662147602      3.9150241560
 O      4.7491164376      4.3907148158      4.0513418509
 O      1.2899133713      2.0029051839      3.7799448935
 O      4.8103698699     -0.0216200943      6.7982183249
 O      0.8506773891      6.6377019291      6.7634705486
 O     -2.4061032178      4.3416573407      6.8128332194
 O      4.9459964499      4.4272420766      6.8287017867
 O      1.4557774422      2.0998816982      6.6258101527
 O      2.4882934762     -0.2825414840      3.2259337503
 O     -1.0160462109      6.4842304812      3.2414388198
 O     -1.2007681471      2.0779198451      3.1931801599
 O      6.1725904510      2.0273732922      3.2489605383
 O      2.3596441583      4.0605573038      3.0717145763
 H      5.2267434480     -0.9220360920      6.6725723850
 H      1.8568562052      6.6909064032      6.7328003915
 H     -3.1424181734      3.9783746771      6.1979801505
 H      5.4720260590      4.3886498374      5.9645964086
 H      1.8923658614     -0.7609290138      2.6074501735
 H     -1.7010235913      7.1307796965      3.6191698035
 H     -1.4315868401      1.2492067040      2.6897722206
 H      7.0858625776      1.7663172011      3.5891276115
60
# ORCA AIMD Position Step 74, t=37.00 fs, E_Pot=-1525.75599607 Hartree, Unit is Angstrom
 H      2.8990960757     -0.0337563453      1.0325316118
 H     -1.2243436008      6.7050018777      1.4486703854
 H     -0.8903430297      2.2277377404      1.3932684843
 H      6.2850202517      1.9484199369      1.4105983458
 H      2.6018504605      4.5003223155      0.9686735749
 H      4.9935165547     -0.0316881378      4.8236801968
 H      1.1972412073      6.5963763593      4.7687444326
 H     -2.0152794400      4.4524619327      4.8515960338
 H      4.3084035440      3.9065106604      4.8202645057
 H      1.4520026500      2.1107888895      4.7587211753
 H      3.6509422650      0.3428339658     -0.3201696818
 H     -1.0562521585      5.9980987572      0.0709570602
 H     -0.6935546680      2.8665844748      0.0088250310
 H      5.1624620218      2.0875928381      0.5116870920
 H      2.2014165511      3.2656068903      0.0573148229
 H      4.1092944139     -0.3483459693      3.5248217702
 H      0.8023118859      6.5451234177      3.2933405764
 H     -2.1385269660      3.5140483206      3.6780927419
 H      5.4148200855      3.6668411250      3.6510836795
 H      1.8002895323      2.9268763750      3.4197465692
 H      0.7558314830      5.6238289224      6.8236507671
 H     -2.5428424133      5.3145716093      6.7133288528
 H      0.4760445317      2.1835271940      6.8118820421
 H      5.5914762375      0.5866584290      7.0915001325
 H      1.6218376088      1.1804565735      7.0305830181
 H      4.7806067100      5.3994749622      6.9745383324
 H      2.0414851430      0.5526964568      3.5411015339
 H      5.6130696832      1.2236251637      3.4884426860
 H      3.2785184103      4.1205147357      3.4151086436
 H     -1.4024461198      5.6123375809      3.4240892109
 H      1.9366827935      4.9535055889      3.4643333644
 H     -0.2335327785      1.8902210033      3.4170383719
 O      2.7375412348      0.1246950741      0.0495823766
 O     -1.2805757984      6.8883147763      0.4690477095
 O     -1.0705965948      2.0391976536      0.4032410802
 O      6.1790387199      2.0053195001      0.4305746381
 O      2.3416587476      4.2516387741      0.0320826484
 O      5.0778688269     -0.1450554714      3.8297985555
 O      1.6177725987      6.4131041834      3.8620614963
 O     -2.3941036126      4.4647467138      3.9134111170
 O      4.7462092760      4.3883727815      4.0511694085
 O      1.2914325842      2.0011798423      3.7772090811
 O      4.8066928538     -0.0222608262      6.8001188208
 O      0.8462600762      6.6375427789      6.7648426695
 O     -2.4049244939      4.3420188865      6.8150846619
 O      4.9447623164      4.4291761615      6.8318649494
 O      1.4572211530      2.0986742695      6.6258686911
 O      2.4865492285     -0.2870026856      3.2271393272
 O     -1.0130059819      6.4843204802      3.2451879224
 O     -1.1999829169      2.0750320975      3.1965511151
 O      6.1706737877      2.0261762197      3.2529373799
 O      2.3554492931      4.0573796885      3.0708361653
 H      5.2214659918     -0.9260035109      6.6673021007
 H      1.8528926181      6.6854685095      6.7355391948
 H     -3.1297249252      3.9695549032      6.1897245912
 H      5.4598444655      4.3745990742      5.9607732096
 H      1.9024846578     -0.7490876943      2.6032710808
 H     -1.6988665790      7.1291250965      3.6331757847
 H     -1.4354077617      1.2600015765      2.6916302698
 H      7.0803842995      1.7637326543      3.5904667817
60
# ORCA AIMD Position Step 75, t=37.50 fs, E_Pot=-1525.75519955 Hartree, Unit is Angstrom
 H      2.8982994927     -0.0296859824      1.0404526889
 H     -1.2221114242      6.6953961837      1.4721673659
 H     -0.8947911543      2.2298140649      1.3914135486
 H      6.2883329915      1.9499857168      1.4215187523
 H      2.6010007473      4.4930482858      0.9662555872
 H      4.9999193497     -0.0332253863      4.8237932715
 H      1.1988614523      6.5950775732      4.7634046707
 H     -2.0173837427      4.4639914020      4.8531655230
 H      4.3062984225      3.8987442189      4.8236364236
 H      1.4538722283      2.1049035330      4.7567208090
 H      3.6535185798      0.3499603248     -0.3249823293
 H     -1.0697204120      6.0048036080      0.0549630679
 H     -0.6870368271      2.8456620100     -0.0043928830
 H      5.1522528088      2.0836141272      0.4976044973
 H      2.2033956258      3.2698319710      0.0449885593
 H      4.1027364798     -0.3502344484      3.5282088877
 H      0.8036067003      6.5444064002      3.2844990878
 H     -2.1254715633      3.5139825044      3.6824722271
 H      5.4295363943      3.6641322405      3.6597597482
 H      1.8007837521      2.9163019545      3.4200679577
 H      0.7418812993      5.6256470651      6.8241887776
 H     -2.5410984903      5.3067063055      6.7117596459
 H      0.4805569996      2.1804211818      6.8099631967
 H      5.5927359435      0.5916550970      7.0914658793
 H      1.6295318036      1.1816377574      7.0272450514
 H      4.7943108578      5.3997410954      6.9697317855
 H      2.0337339642      0.5493423372      3.5367442545
 H      5.6108264949      1.2268337522      3.4920237462
 H      3.2884262628      4.1271010813      3.4154398617
 H     -1.3987124420      5.6041176876      3.4251677673
 H      1.9317637005      4.9448033369      3.4598392503
 H     -0.2332269937      1.8926890862      3.4172214529
 O      2.7419599729      0.1271385392      0.0446363586
 O     -1.2793139375      6.8912658263      0.4669704640
 O     -1.0668938804      2.0398871174      0.4016398125
 O      6.1748159855      2.0026846730      0.4298281068
 O      2.3380723347      4.2476243439      0.0279031634
 O      5.0769696802     -0.1483765426      3.8286325845
 O      1.6210284425      6.4110911341      3.8610565341
 O     -2.3921266452      4.4630863485      3.9120271081
 O      4.7434574719      4.3857299990      4.0510219244
 O      1.2930511090      1.9994489000      3.7745911552
 O      4.8033022840     -0.0228411782      6.8020441434
 O      0.8420426329      6.6371005508      6.7661743744
 O     -2.4039159898      4.3423361482      6.8171173487
 O      4.9435893011      4.4311476752      6.8349179806
 O      1.4585134358      2.0972539439      6.6260644148
 O      2.4849040140     -0.2915611454      3.2283455434
 O     -1.0100000969      6.4848243080      3.2490004397
 O     -1.1992701250      2.0720164029      3.1998656308
 O      6.1689958398      2.0251357667      3.2569854294
 O      2.3511107439      4.0543889977      3.0699640925
 H      5.2155522874     -0.9273598812      6.6628833150
 H      1.8460154870      6.6804317292      6.7386580234
 H     -3.1141594548      3.9625675694      6.1845157535
 H      5.4461883852      4.3621993443      5.9600238723
 H      1.9120983436     -0.7370806223      2.5993436330
 H     -1.6936297512      7.1247750271      3.6452887714
 H     -1.4401444140      1.2718130084      2.6944340751
 H      7.0721086149      1.7621784702      3.5905411324
60
# ORCA AIMD Position Step 76, t=38.00 fs, E_Pot=-1525.75638816 Hartree, Unit is Angstrom
 H      2.8976969970     -0.0243940501      1.0443836671
 H     -1.2199267283      6.6863697984      1.4917935522
 H     -0.8999983641      2.2318591745      1.3856753530
 H      6.2926837281      1.9516122807      1.4314218437
 H      2.5989663039      4.4840371771      0.9616366092
 H      5.0057245073     -0.0351708413      4.8221909432
 H      1.2015849213      6.5930671650      4.7561140878
 H     -2.0205415920      4.4758427466      4.8525975352
 H      4.3059517794      3.8922194243      4.8250142126
 H      1.4548683941      2.0982709202      4.7541617298
 H      3.6534414172      0.3560575205     -0.3279228439
 H     -1.0835639332      6.0138296489      0.0403174847
 H     -0.6805167397      2.8243495362     -0.0176709597
 H      5.1463672570      2.0797753920      0.4819672218
 H      2.2057280230      3.2751888619      0.0333862310
 H      4.0986481325     -0.3512850078      3.5325514895
 H      0.8058539432      6.5439339600      3.2767873926
 H     -2.1125308378      3.5149941005      3.6856535410
 H      5.4406548860      3.6637469437      3.6704179807
 H      1.8001994303      2.9047529752      3.4200614275
 H      0.7278307569      5.6311898529      6.8246252257
 H     -2.5396428993      5.2986287630      6.7104794357
 H      0.4870291887      2.1774827779      6.8075126902
 H      5.5896971049      0.5926371897      7.0898030125
 H      1.6373360554      1.1861178271      7.0222188289
 H      4.8087018305      5.3984846406      6.9639208622
 H      2.0251995289      0.5472235908      3.5313296702
 H      5.6075133390      1.2279044526      3.4954630666
 H      3.2988769968      4.1342001256      3.4146473713
 H     -1.3968311635      5.5934534696      3.4264042891
 H      1.9279033024      4.9344835429      3.4544735247
 H     -0.2315659128      1.8963851965      3.4182332217
 O      2.7465720167      0.1296192419      0.0398457575
 O     -1.2780172991      6.8940428989      0.4650357687
 O     -1.0631156619      2.0406483548      0.4002524958
 O      6.1702162604      2.0000384314      0.4292293723
 O      2.3345034660      4.2435937291      0.0238288778
 O      5.0758942535     -0.1517594982      3.8275762922
 O      1.6241156872      6.4091077101      3.8601289030
 O     -2.3900534278      4.4612423718      3.9108783070
 O      4.7408708553      4.3827558130      4.0509164008
 O      1.2947594507      1.9976917527      3.7720993344
 O      4.8002156818     -0.0233434846      6.8039988583
 O      0.8380038280      6.6363819215      6.7674668855
 O     -2.4030539674      4.3425598064      6.8189417708
 O      4.9424765948      4.4331233604      6.8378632308
 O      1.4596770074      2.0956318686      6.6263832460
 O      2.4833935599     -0.2961631733      3.2296108998
 O     -1.0070412890      6.4856934952      3.2528819174
 O     -1.1986246926      2.0689405401      3.2031597966
 O      6.1675307511      2.0242781191      3.2610891533
 O      2.3467152455      4.0515796701      3.0691176587
 H      5.2090498227     -0.9260354522      6.6593637884
 H      1.8364743681      6.6757766298      6.7421416855
 H     -3.0959683958      3.9573798557      6.1822809180
 H      5.4312308904      4.3515053658      5.9622557487
 H      1.9204169912     -0.7256743343      2.5947271077
 H     -1.6854128341      7.1178252843      3.6555124832
 H     -1.4459991533      1.2836728285      2.6976268538
 H      7.0616811577      1.7614837239      3.5895880205
60
# ORCA AIMD Position Step 77, t=38.50 fs, E_Pot=-1525.75933681 Hartree, Unit is Angstrom
 H      2.8973031511     -0.0177892198      1.0436879852
 H     -1.2178606659      6.6782023144      1.5059029912
 H     -0.9057993437      2.2340503661      1.3763458752
 H      6.2975908842      1.9533679479      1.4392181158
 H      2.5957602034      4.4733541516      0.9549154355
 H      5.0108843402     -0.0375378764      4.8189379448
 H      1.2052169205      6.5904441498      4.7472509725
 H     -2.0246881153      4.4879129137      4.8499421391
 H      4.3073590753      3.8870514846      4.8242577429
 H      1.4550243245      2.0909422263      4.7511210500
 H      3.6510852473      0.3611806597     -0.3290637074
 H     -1.0976718083      6.0248240781      0.0270331769
 H     -0.6734341597      2.8037811289     -0.0314546312
 H      5.1449600265      2.0760583150      0.4651053758
 H      2.2082618885      3.2805673752      0.0225199620
 H      4.0970952484     -0.3514939336      3.5378344937
 H      0.8094155828      6.5436587177      3.2705106579
 H     -2.0996978039      3.5169511073      3.6876441055
 H      5.4479630704      3.6657494936      3.6829557939
 H      1.7986798550      2.8925335013      3.4196363023
 H      0.7137035352      5.6400382736      6.8249828634
 H     -2.5386235353      5.2912201585      6.7094091847
 H      0.4949229532      2.1747282243      6.8046627501
 H      5.5823697690      0.5895536794      7.0865340106
 H      1.6452875748      1.1933961039      7.0157518668
 H      4.8236206245      5.3963736956      6.9572405267
 H      2.0161539114      0.5461457660      3.5248714483
 H      5.6030628373      1.2267757777      3.4987314086
 H      3.3087662342      4.1416990193      3.4123379069
 H     -1.3964401942      5.5812628818      3.4276296871
 H      1.9249841891      4.9228050700      3.4483720763
 H     -0.2285694639      1.9011768161      3.4199885827
 O      2.7513543216      0.1321281725      0.0352545996
 O     -1.2766884272      6.8966518431      0.4633486663
 O     -1.0593066582      2.0413989793      0.3990904855
 O      6.1652577871      1.9973775069      0.4288263748
 O      2.3309606452      4.2396121769      0.0198530921
 O      5.0746417918     -0.1552021969      3.8266262011
 O      1.6270244972      6.4071557782      3.8592368003
 O     -2.3878846280      4.4592284088      3.9099588476
 O      4.7384556261      4.3794369589      4.0508640192
 O      1.2965445668      1.9958845900      3.7697372124
 O      4.7974245824     -0.0237535336      6.8059819416
 O      0.8341083313      6.6354131972      6.7687211366
 O     -2.4022997064      4.3426468785      6.8205832223
 O      4.9414164987      4.4350632906      6.8407154054
 O      1.4607438117      2.0938371984      6.6267997455
 O      2.4820434871     -0.3007548443      3.2309914307
 O     -1.0041324035      6.4868463149      3.2568304356
 O     -1.1980334672      2.0658764920      3.2064757799
 O      6.1662263979      2.0236226873      3.2652298550
 O      2.3423465019      4.0489394905      3.0683097529
 H      5.2020822781     -0.9222059594      6.6567471681
 H      1.8247858700      6.6715015840      6.7459669254
 H     -3.0756416077      3.9537956438      6.1827197236
 H      5.4152840604      4.3425007451      5.9671383385
 H      1.9267604781     -0.7155414022      2.5885398775
 H     -1.6745855124      7.1086363808      3.6640107218
 H     -1.4531797393      1.2945662052      2.7005997932
 H      7.0500353967      1.7613911150      3.5879483589
60
# ORCA AIMD Position Step 78, t=39.00 fs, E_Pot=-1525.76313782 Hartree, Unit is Angstrom
 H      2.8971562329     -0.0098552914      1.0381226459
 H     -1.2159590204      6.6710980235      1.5134506922
 H     -0.9119839302      2.2366147124      1.3640585279
 H      6.3026026427      1.9553004036      1.4440751866
 H      2.5914723448      4.4611580391      0.9464339709
 H      5.0153621165     -0.0403178456      4.8142589257
 H      1.2094814729      6.5873486406      4.7373789313
 H     -2.0296878162      4.5001011385      4.8454364104
 H      4.3103871223      3.8832382708      4.8214294532
 H      1.4543961653      2.0829850401      4.7477470277
 H      3.6470800755      0.3654625271     -0.3286210550
 H     -1.1119094920      6.0372577950      0.0149977093
 H     -0.6652503716      2.7849722454     -0.0461975190
 H      5.1478088491      2.0724766827      0.4473583622
 H      2.2108412925      3.2847830842      0.0123573513
 H      4.0979576552     -0.3509024539      3.5439676849
 H      0.8145123382      6.5435486283      3.2658592580
 H     -2.0869435775      3.5196580292      3.6884529151
 H      5.4514330518      3.6700665337      3.6971649656
 H      1.7964035642      2.8799859723      3.4187032906
 H      0.6994680892      5.6514504010      6.8253018585
 H     -2.5381706931      5.2853080808      6.7084774137
 H      0.5035212311      2.1721897987      6.8015790583
 H      5.5711006401      0.5826566400      7.0818099455
 H      1.6534946901      1.2026718091      7.0082203106
 H      4.8389026703      5.3941884046      6.9498577966
 H      2.0069043322      0.5458407898      3.5173755533
 H      5.5975551030      1.2235797159      3.5017432346
 H      3.3171632378      4.1494720790      3.4082037283
 H     -1.3971306301      5.5685800380      3.4286584350
 H      1.9228186298      4.9101473194      3.4417164169
 H     -0.2243807236      1.9069213013      3.4223533744
 O      2.7562659364      0.1346558554      0.0308912537
 O     -1.2753329774      6.8991144316      0.4619847661
 O     -1.0555131730      2.0420604497      0.3981444517
 O      6.1599808042      1.9946979840      0.4286507633
 O      2.3274478938      4.2357439653      0.0159565548
 O      5.0732223844     -0.1587014841      3.8257732751
 O      1.6297590216      6.4052338956      3.8583339132
 O     -2.3856264611      4.4570617469      3.9092506261
 O      4.7362144597      4.3757775327      4.0508690641
 O      1.2983900882      1.9940010339      3.7675042106
 O      4.7948949371     -0.0240614048      6.8079871920
 O      0.8303088609      6.6342403071      6.7699374509
 O     -2.4016009908      4.3425683760      6.8220820239
 O      4.9403939569      4.4369254674      6.8435026767
 O      1.4617524371      2.0919168307      6.6272781433
 O      2.4808619723     -0.3052905394      3.2325295388
 O     -1.0012624050      6.4881775453      3.2608341101
 O     -1.1974776367      2.0628917850      3.2098563044
 O      6.1650072647      2.0231808279      3.2693870287
 O      2.3380811198      4.0464488122      3.0675449714
 H      5.1948425494     -0.9162823125      6.6549904313
 H      1.8117108055      6.6676167749      6.7501062096
 H     -3.0538999507      3.9514479386      6.1852893295
 H      5.3987832112      4.3350873850      5.9740984585
 H      1.9306956639     -0.7071516111      2.5801273377
 H     -1.6617840804      7.0978252856      3.6711177837
 H     -1.4618613983      1.3035690106      2.7027774960
 H      7.0383322863      1.7615691703      3.5860430682
60
# ORCA AIMD Position Step 79, t=39.50 fs, E_Pot=-1525.76646064 Hartree, Unit is Angstrom
 H      2.8973128671     -0.0006502290      1.0278451935
 H     -1.2142497087      6.6652020522      1.5138699025
 H     -0.9183004964      2.2398351148      1.3497968582
 H      6.3073120111      1.9574359691      1.4454458634
 H      2.5862662694      4.4476914065      0.9367683592
 H      5.0191333908     -0.0434815970      4.8085231012
 H      1.2140380572      6.5839515349      4.7272139049
 H     -2.0353390217      4.5123111590      4.8394921531
 H      4.3147767286      3.8806612458      4.8167904232
 H      1.4530593788      2.0744814082      4.7442428639
 H      3.6422848940      0.3691077704     -0.3269414930
 H     -1.1261287078      6.0504696975      0.0039939749
 H     -0.6555455605      2.7686544477     -0.0622454702
 H      5.1543068790      2.0690773277      0.4290602985
 H      2.2133256334      3.2867333780      0.0028286406
 H      4.1009309954     -0.3495977803      3.5507886248
 H      0.8212136992      6.5435915006      3.2628978965
 H     -2.0742275806      3.5228734952      3.6880961334
 H      5.4512281374      3.6764890893      3.7127364011
 H      1.7935788274      2.8674869476      3.4171764910
 H      0.6850362367      5.6643776640      6.8256387640
 H     -2.5383838975      5.2815449696      6.7076315924
 H      0.5119837317      2.1699066684      6.7984507792
 H      5.5566013368      0.5725222415      7.0759166885
 H      1.6621320721      1.2128730003      7.0001143395
 H      4.8543897474      5.3927349819      6.9419565956
 H      1.9977739070      0.5459976086      3.5088532527
 H      5.5912053015      1.2186107711      3.5043683679
 H      3.3233383780      4.1573846042      3.4020331989
 H     -1.3985009909      5.5564247246      3.4293163125
 H      1.9211473201      4.8970203597      3.4347385722
 H     -0.2192457849      1.9134606923      3.4251541819
 O      2.7612499482      0.1371926535      0.0267672558
 O     -1.2739586457      6.9014645445      0.4609963673
 O     -1.0517767946      2.0425680956      0.3973766394
 O      6.1544472264      1.9919952622      0.4287170653
 O      2.3239636987      4.2320431938      0.0121075391
 O      5.0716567718     -0.1622530189      3.8250037144
 O      1.6323370074      6.4033371854      3.8573721614
 O     -2.3832902511      4.4547619119      3.9087240058
 O      4.7341464918      4.3717989509      4.0509292630
 O      1.3002767342      1.9920126977      3.7653963806
 O      4.7925657857     -0.0242637717      6.8100027386
 O      0.8265489688      6.6329282531      6.7711152954
 O     -2.4008939012      4.3423165427      6.8234927386
 O      4.9393866223      4.4386710475      6.8462668966
 O      1.4627449101      2.0899341885      6.6277739935
 O      2.4798342385     -0.3097394124      3.2342429346
 O     -0.9984039351      6.4895684364      3.2648697679
 O     -1.1969372583      2.0600401203      3.2133370642
 O      6.1637822456      2.0229558635      3.2735400026
 O      2.3339867227      4.0440801439      3.0668189567
 H      5.1875858428     -0.9088946755      6.6540048327
 H      1.7982124704      6.6641372878      6.7545297587
 H     -3.0316779397      3.9498067393      6.1892028918
 H      5.3822708625      4.3290884884      5.9823279531
 H      1.9321426874     -0.7006995291      2.5692226657
 H     -1.6478935847      7.0862399786      3.6773347176
 H     -1.4721310661      1.3100007930      2.7037261004
 H      7.0278475571      1.7616400487      3.5843329602
60
# ORCA AIMD Position Step 80, t=40.00 fs, E_Pot=-1525.76802272 Hartree, Unit is Angstrom
 H      2.8978447241      0.0097013209      1.0134253558
 H     -1.2127448142      6.6605945990      1.5069992179
 H     -0.9244735337      2.2440581262      1.3348579955
 H      6.3113658221      1.9597857863      1.4430811013
 H      2.5803682595      4.4332575218      0.9266956165
 H      5.0221904367     -0.0469799441      4.8022234950
 H      1.2185025055      6.5804429425      4.7175752220
 H     -2.0413859217      4.5244622201      4.8326759384
 H      4.3201456270      3.8790854433      4.8107981028
 H      1.4511049106      2.0655228138      4.7408470820
 H      3.6377297955      0.3723810686     -0.3244778988
 H     -1.1401905505      6.0637235336     -0.0062832459
 H     -0.6441035718      2.7551315586     -0.0797281950
 H      5.1634593505      2.0659398805      0.4105142001
 H      2.2156135653      3.2855814698     -0.0061672056
 H      4.1055277933     -0.3477066117      3.5580707341
 H      0.8294287235      6.5437958149      3.2615576825
 H     -2.0614977396      3.5263340879      3.6866040737
 H      5.4477297185      3.6846557064      3.7292653420
 H      1.7904372878      2.8554291909      3.4149791134
 H      0.6702614906      5.6775299338      6.8260631065
 H     -2.5393214837      5.2802929473      6.7068485440
 H      0.5194408157      2.1679123049      6.7954739037
 H      5.5399813106      0.5600770511      7.0692803383
 H      1.6714313154      1.2227384729      6.9919999786
 H      4.8699525669      5.3927306367      6.9337179732
 H      1.9890814176      0.5462893362      3.4993280943
 H      5.5843409135      1.2122940350      3.5064477723
 H      3.3267599798      4.1652980970      3.3937088247
 H     -1.4001890660      5.5457184785      3.4294554154
 H      1.9196406678      4.8840574260      3.4277160901
 H     -0.2134849841      1.9206215975      3.4281883202
 O      2.7662373657      0.1397291134      0.0228750109
 O     -1.2725736051      6.9037448330      0.4604157654
 O     -1.0481279210      2.0428798439      0.3967162195
 O      6.1487403076      1.9892636896      0.4290234893
 O      2.3205001790      4.2285435429      0.0082635410
 O      5.0699760110     -0.1658517699      3.8242997771
 O      1.6347888978      6.4014577826      3.8563052406
 O     -2.3808919395      4.4523485671      3.9083387390
 O      4.7322456388      4.3675409295      4.0510356169
 O      1.3021829210      1.9898903060      3.7634071795
 O      4.7903483825     -0.0243681538      6.8120105088
 O      0.8227688753      6.6315575903      6.7722529168
 O     -2.4001072716      4.3419106064      6.8248815090
 O      4.9383660621      4.4402714699      6.8490619162
 O      1.4637613802      2.0879649452      6.6282376043
 O      2.4789220408     -0.3140878278      3.2361204479
 O     -0.9955142094      6.4908954771      3.2689034456
 O     -1.1963959213      2.0573531064      3.2169405695
 O      6.1624567415      2.0229425775      3.2776709076
 O      2.3301219404      4.0417986721      3.0661190110
 H      5.1806104071     -0.9008516370      6.6536589838
 H      1.7853670797      6.6610729321      6.7592126734
 H     -3.0100626329      3.9482026874      6.1934603636
 H      5.3663540538      4.3242506676      5.9908291247
 H      1.9314027129     -0.6960948225      2.5560073369
 H     -1.6339962917      7.0749076840      3.6833115884
 H     -1.4839411033      1.3135521741      2.7032437031
 H      7.0198012462      1.7612266329      3.5832554958
60
# ORCA AIMD Position Step 81, t=40.50 fs, E_Pot=-1525.76719499 Hartree, Unit is Angstrom
 H      2.8988394913      0.0210124470      0.9958672818
 H     -1.2114415532      6.6572868572      1.4930555519
 H     -0.9302225225      2.2496859132      1.3207536897
 H      6.3144743620      1.9623485589      1.4370333149
 H      2.5740467343      4.4181913595      0.9171322089
 H      5.0245429500     -0.0507476015      4.7959369547
 H      1.2224880215      6.5770111729      4.7092983824
 H     -2.0475339352      4.5364909404      4.8256675202
 H      4.3259996014      3.8781703955      4.8040885780
 H      1.4486336757      2.0562066523      4.7378069061
 H      3.6345186307      0.3755808402     -0.3217452371
 H     -1.1539802764      6.0762894597     -0.0161845008
 H     -0.6309637098      2.7442373458     -0.0984831981
 H      5.1739101176      2.0631763384      0.3919715832
 H      2.2176574857      3.2809162376     -0.0147461777
 H      4.1110915527     -0.3453900483      3.5655329187
 H      0.8389073638      6.5441937505      3.2616365531
 H     -2.0486997889      3.5297808934      3.6840281695
 H      5.4415623698      3.6940322937      3.7462517220
 H      1.7872219571      2.8442035084      3.4120502423
 H      0.6549554346      5.6894910538      6.8266515934
 H     -2.5409962243      5.2815582563      6.7061386559
 H      0.5251071835      2.1662183847      6.7928327501
 H      5.5227642908      0.5466048225      7.0624665243
 H      1.6816491390      1.2309558463      6.9844588574
 H      4.8854980477      5.3946873278      6.9253041679
 H      1.9811242428      0.5464020987      3.4888448006
 H      5.5773617937      1.2051282500      3.5078152350
 H      3.3270854668      4.1730742436      3.3832013629
 H     -1.4018894152      5.5372333792      3.4289621472
 H      1.9179162607      4.8719835759      3.4209595825
 H     -0.2074537810      1.9282139643      3.4312392629
 O      2.7711532561      0.1422574264      0.0191835861
 O     -1.2711855188      6.9060017844      0.4602539695
 O     -1.0445812806      2.0429795081      0.3960606768
 O      6.1429623829      1.9864963737      0.4295528898
 O      2.3170434038      4.2252499308      0.0043740864
 O      5.0682205920     -0.1694920937      3.8236417015
 O      1.6371551936      6.3995856525      3.8550940485
 O     -2.3784508860      4.4498396559      3.9080463899
 O      4.7304986058      4.3630618749      4.0511737798
 O      1.3040857880      1.9876049613      3.7615285667
 O      4.7881266912     -0.0243974466      6.8139855659
 O      0.8189123201      6.6302179109      6.7733473217
 O     -2.3991694327      4.3413967558      6.8263199884
 O      4.9373006432      4.4417144448      6.8519487861
 O      1.4648349947      2.0860893811      6.6286190546
 O      2.4780684393     -0.3183374701      3.2381237321
 O     -0.9925404757      6.4920403728      3.2728939688
 O     -1.1958451717      2.0548365721      3.2206719321
 O      6.1609484721      2.0231269604      3.2817680998
 O      2.3265357291      4.0395643352      3.0654254317
 H      5.1742328252     -0.8930750240      6.6537898416
 H      1.7742389309      6.6584160525      6.7641391898
 H     -2.9901898165      3.9458938336      6.1969386098
 H      5.3516497393      4.3202657137      5.9985047916
 H      1.9290971771     -0.6930208275      2.5410747370
 H     -1.6212643893      7.0649302905      3.6897861298
 H     -1.4970753535      1.3143410745      2.7014127225
 H      7.0151449304      1.7600152334      3.5831499273
60
# ORCA AIMD Position Step 82, t=41.00 fs, E_Pot=-1525.76446355 Hartree, Unit is Angstrom
 H      2.9004034867      0.0330445093      0.9766137498
 H     -1.2103192543      6.6552022358      1.4726652093
 H     -0.9352902929      2.2571472395      1.3090171568
 H      6.3164203360      1.9651145008      1.4276619611
 H      2.5675795599      4.4028218635      0.9090319416
 H      5.0262177246     -0.0547089805      4.7902692887
 H      1.2256573178      6.5738175190      4.7031228622
 H     -2.0534725086      4.5483506577      4.8191954904
 H      4.3317558329      3.8774936604      4.7974373351
 H      1.4457508081      2.0466325700      4.7353497320
 H      3.6336862726      0.3789987563     -0.3192563091
 H     -1.1674210633      6.0875392231     -0.0260522110
 H     -0.6164111095      2.7354043701     -0.1180532441
 H      5.1840290548      2.0609267824      0.3736127930
 H      2.2194666324      3.2728356171     -0.0230222810
 H      4.1168278850     -0.3428336417      3.5728553299
 H      0.8492490053      6.5448431672      3.2628073406
 H     -2.0357854886      3.5329864123      3.6804473831
 H      5.4336137837      3.7038938210      3.7631063882
 H      1.7841719483      2.8341737428      3.4083540977
 H      0.6389216001      5.6989044467      6.8274787026
 H     -2.5433791194      5.2849921778      6.7055421779
 H      0.5284050601      2.1647981321      6.7906806563
 H      5.5068286112      0.5336874358      7.0561516003
 H      1.6930151765      1.2363619105      6.9780037959
 H      4.9009692306      5.3988179046      6.9168477547
 H      1.9741641673      0.5460599170      3.4774752060
 H      5.5706979770      1.1976324692      3.5083173572
 H      3.3241548820      4.1805805544      3.3705631584
 H     -1.4033585039      5.5315706158      3.4277586487
 H      1.9155716413      4.8615524319      3.4147869789
 H     -0.2015038732      1.9360331148      3.4340919526
 O      2.7759256931      0.1447734204      0.0156343343
 O     -1.2698008580      6.9082808600      0.4604951793
 O     -1.0411346956      2.0428744051      0.3952876995
 O      6.1372287571      1.9836851619      0.4302734952
 O      2.3135751771      4.2221355160      0.0003860631
 O      5.0664385485     -0.1731679831      3.8230101776
 O      1.6394826417      6.3977098581      3.8537132020
 O     -2.3759881309      4.4472497610      3.9077941475
 O      4.7288822389      4.3584382081      4.0513263071
 O      1.3059624926      1.9851297436      3.7597520550
 O      4.7857633002     -0.0243924359      6.8158967371
 O      0.8149344308      6.6289969555      6.7743945636
 O     -2.3980180471      4.3408410997      6.8278752805
 O      4.9361602460      4.4430077493      6.8549872766
 O      1.4659874744      2.0843808563      6.6288747438
 O      2.4772064454     -0.3225006085      3.2401950763
 O     -0.9894304298      6.4929016641      3.2767999157
 O     -1.1952867487      2.0524726699      3.2245189300
 O      6.1592026143      2.0234857995      3.2858294078
 O      2.3232656678      4.0373356973      3.0647136477
 H      5.1687531424     -0.8865009648      6.6542214588
 H      1.7657215992      6.6561281965      6.7693063671
 H     -2.9730837590      3.9421769318      6.1985536393
 H      5.3387096925      4.3168051132      6.0043033460
 H      1.9260423702     -0.6910342967      2.5253003976
 H     -1.6107867509      7.0573232680      3.6974742787
 H     -1.5111503675      1.3128734515      2.6985858751
 H      7.0143617893      1.7578188028      3.5841886256
60
# ORCA AIMD Position Step 83, t=41.50 fs, E_Pot=-1525.76130250 Hartree, Unit is Angstrom
 H      2.9026626280      0.0455273184      0.9574937839
 H     -1.2093327114      6.6541435260      1.4469480318
 H     -0.9394754902      2.2668406759      1.3009253101
 H      6.3170673635      1.9680698696      1.4156406297
 H      2.5612114467      4.3874318181      0.9032473970
 H      5.0272562820     -0.0587861147      4.7857870875
 H      1.2277779653      6.5709705997      4.6995726346
 H     -2.0589040662      4.5600048472      4.8139499787
 H      4.3367848441      3.8765929539      4.7916872222
 H      1.4425600812      2.0368994347      4.7336551924
 H      3.6360285115      0.3828689635     -0.3174445193
 H     -1.1804814465      6.0970397467     -0.0361612313
 H     -0.6009118456      2.7278168941     -0.1377571468
 H      5.1920922148      2.0593484772      0.3555385185
 H      2.2210967024      3.2619200969     -0.0310935806
 H      4.1218620999     -0.3402326322      3.5797024323
 H      0.8599235439      6.5458279844      3.2646374191
 H     -2.0227207020      3.5357779115      3.6759729525
 H      5.4250265730      3.7133270611      3.7791712236
 H      1.7815046425      2.8256480141      3.4038908570
 H      0.6220079800      5.7047062609      6.8286045260
 H     -2.5464102958      5.2899593360      6.7051185425
 H      0.5290662902      2.1635734379      6.7891244845
 H      5.4942048592      0.5230269918      7.0510452637
 H      1.7056644456      1.2381667867      6.9729877201
 H      4.9163358571      5.4049938077      6.9084488826
 H      1.9684162491      0.5450460764      3.4653221376
 H      5.5647701729      1.1903003658      3.5078294060
 H      3.3179934625      4.1876980769      3.3559225889
 H     -1.4044146765      5.5291537919      3.4258013284
 H      1.9122331172      4.8534529155      3.4094859454
 H     -0.1959495691      1.9438640726      3.4365466026
 O      2.7804965510      0.1472785878      0.0121392660
 O     -1.2684248425      6.9106226486      0.4610876604
 O     -1.0377710774      2.0425893924      0.3942770182
 O      6.1316557493      1.9808210111      0.4311388051
 O      2.3100763123      4.2191457821     -0.0037484491
 O      5.0646820433     -0.1768734071      3.8223891903
 O      1.6418194404      6.3958200557      3.8521573047
 O     -2.3735241443      4.4445891230      3.9075301206
 O      4.7273613241      4.3537610944      4.0514760357
 O      1.3077916804      1.9824414909      3.7580696281
 O      4.7831147115     -0.0244085188      6.8177098336
 O      0.8108084288      6.6279665978      6.7753904092
 O     -2.3966113341      4.3403163212      6.8295970212
 O      4.9349220772      4.4441791234      6.8582246598
 O      1.4672269881      2.0828925327      6.6289741124
 O      2.4762685008     -0.3265948547      3.2422676493
 O     -0.9861456286      6.4934074183      3.2805890267
 O     -1.1947322441      2.0502268919      3.2284559214
 O      6.1572013993      2.0239871346      3.2898636823
 O      2.3203347676      4.0350754826      3.0639569585
 H      5.1644139529     -0.8819540421      6.6547911295
 H      1.7603787289      6.6541288576      6.7747249227
 H     -2.9594685080      3.9365312741      6.1974757996
 H      5.3279382785      4.3135650814      6.0074002186
 H      1.9231076633     -0.6896690322      2.5096756635
 H     -1.6033549582      7.0528213599      3.7069229750
 H     -1.5256526119      1.3099245061      2.6953126839
 H      7.0173518745      1.7546181466      3.5863405976
60
# ORCA AIMD Position Step 84, t=42.00 fs, E_Pot=-1525.75930771 Hartree, Unit is Angstrom
 H      2.9057561815      0.0581919471      0.9405639168
 H     -1.2084022230      6.6537462427      1.4176379819
 H     -0.9426593248      2.2790562161      1.2972028698
 H      6.3163656335      1.9712023708      1.4019573977
 H      2.5551092757      4.3722246924      0.9003777386
 H      5.0277104925     -0.0629079647      4.7829436042
 H      1.2287658098      6.5685071105      4.6988612174
 H     -2.0635755227      4.5714137333      4.8104820223
 H      4.3404730662      3.8750279521      4.7876408876
 H      1.4391593030      2.0271032792      4.7328324010
 H      3.6419478271      0.3873195102     -0.3165922028
 H     -1.1931732450      6.1046206263     -0.0466673914
 H     -0.5850199781      2.7205881603     -0.1568048750
 H      5.1965585349      2.0585963015      0.3377845486
 H      2.2226299973      3.2491070248     -0.0390350142
 H      4.1253286408     -0.3377725339      3.5857536828
 H      0.8703102443      6.5472549627      3.2666238141
 H     -2.0094925327      3.5380537182      3.6707505622
 H      5.4171321664      3.7212788956      3.7937625674
 H      1.7793985336      2.8188518218      3.3987068161
 H      0.6041679062      5.7063450587      6.8300629293
 H     -2.5500133832      5.2956509844      6.7049327720
 H      0.5271828309      2.1624105252      6.7882169421
 H      5.4866972307      0.5161276828      7.0477580925
 H      1.7195734457      1.2361304377      6.9695356390
 H      4.9315786967      5.4127684562      6.9001806387
 H      1.9640409114      0.5432200740      3.4525214250
 H      5.5599558405      1.1835640563      3.5062661452
 H      3.3088243255      4.1943313253      3.3394795511
 H     -1.4049382842      5.5302253662      3.4230789932
 H      1.9076141125      4.8482003557      3.4052706525
 H     -0.1910446742      1.9514873415      3.4384293013
 O      2.7848317366      0.1497811548      0.0085865049
 O     -1.2670621827      6.9130615537      0.4619329500
 O     -1.0344625897      2.0421606858      0.3929362149
 O      6.1263428294      1.9778948733      0.4320864453
 O      2.3065306731      4.2162084705     -0.0080630274
 O      5.0630021101     -0.1806027292      3.8217687430
 O      1.6442100695      6.3939079160      3.8504447366
 O     -2.3710763329      4.4418636084      3.9072095674
 O      4.7258886324      4.3491290677      4.0516102119
 O      1.3095549147      1.9795224814      3.7564743764
 O      4.7800576444     -0.0245038659      6.8193941711
 O      0.8065288739      6.6271693008      6.7763312402
 O     -2.3949370095      4.3398860807      6.8315054547
 O      4.9335759691      4.4452720003      6.8616846294
 O      1.4685490367      2.0816465467      6.6289044115
 O      2.4751942895     -0.3306390614      3.2442748994
 O     -0.9826733201      6.4935258203      3.2842471585
 O     -1.1942006749      2.0480572780      3.2324498677
 O      6.1549647965      2.0245924922      3.2938896070
 O      2.3177471025      4.0327567932      3.0631295010
 H      5.1613612860     -0.8800169966      6.6553781775
 H      1.7583315439      6.6522903752      6.7804162594
 H     -2.9496125228      3.9287532566      6.1933325268
 H      5.3195252065      4.3103118669      6.0073693356
 H      1.9210974137     -0.6885165438      2.4951565844
 H     -1.5992767236      7.0517125060      3.7183687219
 H     -1.5399993053      1.3063851861      2.6922350893
 H      7.0234534684      1.7505635680      3.5893837150
60
# ORCA AIMD Position Step 85, t=42.50 fs, E_Pot=-1525.75911385 Hartree, Unit is Angstrom
 H      2.9098158224      0.0708145762      0.9278093198
 H     -1.2074022984      6.6534296360      1.3871894029
 H     -0.9448167401      2.2938998007      1.2978250821
 H      6.3143509556      1.9745085065      1.3878899289
 H      2.5493280055      4.3573090834      0.9006441084
 H      5.0276364941     -0.0670185417      4.7820154074
 H      1.2287029787      6.5663849551      4.7008489800
 H     -2.0673058729      4.5825180936      4.8091125702
 H      4.3423013656      3.8724543633      4.7859272372
 H      1.4356361118      2.0173355237      4.7329007741
 H      3.6513652986      0.3923414809     -0.3167855876
 H     -1.2055420716      6.1103997985     -0.0575748884
 H     -0.5692862168      2.7129060781     -0.1744162952
 H      5.1963924343      2.0587965983      0.3203644075
 H      2.2241546253      3.2355155950     -0.0468983151
 H      4.1264815978     -0.3356078958      3.5907376047
 H      0.8797595398      6.5492466410      3.2682458749
 H     -1.9961126821      3.5397892498      3.6649586599
 H      5.4113046472      3.7266703090      3.8062413172
 H      1.7779753442      2.8138978576      3.3929050071
 H      0.5855070440      5.7039060023      6.8318543990
 H     -2.5541101823      5.3012098713      6.7050428013
 H      0.5231884221      2.1611266613      6.7879583531
 H      5.4854046391      0.5139079637      7.0466454432
 H      1.7345270928      1.2306176199      6.9675277836
 H      4.9466753327      5.4214575773      6.8920983122
 H      1.9611369065      0.5405329799      3.4392414650
 H      5.5565664209      1.1777744433      3.5035859990
 H      3.2970931897      4.2004223336      3.3215022153
 H     -1.4048731851      5.5348434538      3.4196103553
 H      1.9015665062      4.8460475405      3.4022475515
 H     -0.1869622456      1.9586855021      3.4395996827
 O      2.7889281560      0.1522953071      0.0048562996
 O     -1.2657183598      6.9156272832      0.4628772572
 O     -1.0311757319      2.0416314183      0.3912205933
 O      6.1213522839      1.9748989088      0.4330369301
 O      2.3029286421      4.2132455721     -0.0125690252
 O      5.0614421199     -0.1843513618      3.8211467071
 O      1.6466902675      6.3919679722      3.8486170381
 O     -2.3686569940      4.4390755466      3.9068006989
 O      4.7244088534      4.3446357010      4.0517244677
 O      1.3112379412      1.9763620668      3.7549609538
 O      4.7765210370     -0.0247216210      6.8209307979
 O      0.8021103566      6.6266100450      6.7772148534
 O     -2.3930147052      4.3395929902      6.8335859111
 O      4.9321271375      4.4463385713      6.8653605982
 O      1.4699397294      2.0806301332      6.6286716963
 O      2.4739358521     -0.3346511619      3.2461573959
 O     -0.9790314844      6.4932693775      3.2877829793
 O     -1.1937154031      2.0459229309      3.2364664528
 O      6.1525428977      2.0252605051      3.2979322807
 O      2.3154833927      4.0303681417      3.0622085641
 H      5.1596159378     -0.8809253091      6.6559288792
 H      1.7592328131      6.6504417474      6.7864066150
 H     -2.9432767709      3.9190225224      6.1863088498
 H      5.3134173275      4.3069124778      6.0042811311
 H      1.9206747372     -0.6872728201      2.4825554140
 H     -1.5982973248      7.0537715806      3.7316624827
 H     -1.5536047995      1.3031202449      2.6899838959
 H      7.0315861019      1.7459387396      3.5929581397
60
# ORCA AIMD Position Step 86, t=43.00 fs, E_Pot=-1525.76005317 Hartree, Unit is Angstrom
 H      2.9149312112      0.0832574698      0.9207358651
 H     -1.2061568181      6.6523697623      1.3587533435
 H     -0.9460044366      2.3112492677      1.3020089652
 H      6.3111289812      1.9780002726      1.3749294828
 H      2.5437990943      4.3427051730      0.9038356541
 H      5.0270884680     -0.0710836591      4.7830571837
 H      1.2278210631      6.5644920589      4.7050745948
 H     -2.0700023270      4.5932206296      4.8098711862
 H      4.3419199686      3.8686921217      4.7868777714
 H      1.4320669222      2.0076828772      4.7337897174
 H      3.6637414036      0.3977903526     -0.3179163870
 H     -1.2176484352      6.1147445694     -0.0687401952
 H     -0.5541901070      2.7041278805     -0.1899169072
 H      5.1913128744      2.0600208456      0.3033338572
 H      2.2257461774      3.2222718578     -0.0547179013
 H      4.1248164390     -0.3338427910      3.5944652890
 H      0.8876723576      6.5519258700      3.2690324212
 H     -1.9826201001      3.5410332810      3.6588037398
 H      5.4087263364      3.7285792750      3.8161046768
 H      1.7772958437      2.8107828283      3.3866452680
 H      0.5662981003      5.6980835947      6.8339467643
 H     -2.5586312209      5.3058409168      6.7054920258
 H      0.5177794555      2.1595071570      6.7883066842
 H      5.4903601846      0.5164194774      7.0476999948
 H      1.7501303251      1.2225076091      6.9666414348
 H      4.9615873376      5.4302522441      6.8842515877
 H      1.9597395445      0.5370337028      3.4256815728
 H      5.5548253461      1.1731797080      3.4997939489
 H      3.2834871750      4.2059631238      3.3023197077
 H     -1.4042351079      5.5428667685      3.4154442813
 H      1.8941151783      4.8469302759      3.4003961807
 H     -0.1837976354      1.9652493367      3.4399533550
 O      2.7928145902      0.1548385197      0.0008468580
 O     -1.2644010903      6.9183490393      0.4637133437
 O     -1.0278764340      2.0410483969      0.3891397983
 O      6.1166944733      1.9718277582      0.4338942631
 O      2.2992690446      4.2101839881     -0.0172516997
 O      5.0600307026     -0.1881161306      3.8205295020
 O      1.6492830862      6.3899982008      3.8467328023
 O     -2.3662718529      4.4362253998      3.9062887806
 O      4.7228684250      4.3403536029      4.0518249966
 O      1.3128313208      1.9729570974      3.7535254391
 O      4.7725092239     -0.0250746176      6.8223186223
 O      0.7975820999      6.6262571834      6.7780408701
 O     -2.3908904399      4.3394536412      6.8357922308
 O      4.9305955685      4.4474321665      6.8692156789
 O      1.4713800269      2.0798002485      6.6282975597
 O      2.4724602020     -0.3386470347      3.2478670415
 O     -0.9752641150      6.4926911922      3.2912260248
 O     -1.1933006052      2.0437902949      3.2404748592
 O      6.1500035927      2.0259518373      3.3020183505
 O      2.3134977323      4.0279156491      3.0611761713
 H      5.1590666520     -0.8845286000      6.6564667630
 H      1.7623383514      6.6483823548      6.7927195820
 H     -2.9397931398      3.9078706638      6.1771002410
 H      5.3093418968      4.3033425273      5.9986900438
 H      1.9223214675     -0.6857610954      2.4724754306
 H     -1.5996718889      7.0583293158      3.7462978729
 H     -1.5659365541      1.3008645772      2.6891000859
 H      7.0404674513      1.7410999103      3.5966430282
60
# ORCA AIMD Position Step 87, t=43.50 fs, E_Pot=-1525.76094863 Hartree, Unit is Angstrom
 H      2.9211093630      0.0954901247      0.9199812881
 H     -1.2044527024      6.6495549585      1.3358579548
 H     -0.9463346647      2.3307630957      1.3084029661
 H      6.3068406570      1.9817112740      1.3646271934
 H      2.5383457888      4.3283708152      0.9093465589
 H      5.0261131688     -0.0750928103      4.7858934682
 H      1.2264587672      6.5626669515      4.7108408477
 H     -2.0716602936      4.6033759007      4.8124893625
 H      4.3392005165      3.8637654432      4.7904473991
 H      1.4285161065      1.9982268178      4.7353433504
 H      3.6781890702      0.4034160846     -0.3197231611
 H     -1.2295505928      6.1181915104     -0.0799028422
 H     -0.5400968382      2.6938222447     -0.2027992742
 H      5.1818586083      2.0622707097      0.2868454872
 H      2.2274575925      3.2103744899     -0.0625189450
 H      4.1201604049     -0.3325196060      3.5968522244
 H      0.8935903645      6.5553967269      3.2686344108
 H     -1.9690784833      3.5418941962      3.6525117096
 H      5.4101262177      3.7264456126      3.8230726441
 H      1.7773588945      2.8093873872      3.3801410990
 H      0.5469522879      5.6900162558      6.8362833173
 H     -2.5635234989      5.3088925130      6.7063056979
 H      0.5117990223      2.1573277615      6.7891919748
 H      5.5005076730      0.5228439872      7.0505599690
 H      1.7658634465      1.2129976726      6.9664321131
 H      4.9762561915      5.4383341753      6.8766934695
 H      1.9598200898      0.5328717928      3.4120674374
 H      5.5548575736      1.1699193995      3.4949389464
 H      3.2689446965      4.2110085257      3.2823106879
 H     -1.4031213991      5.5539393609      3.4106587579
 H      1.8854582001      4.8504833369      3.3995786833
 H     -0.1815709240      1.9709836921      3.4394221783
 O      2.7965471460      0.1574283159     -0.0034984976
 O     -1.2631205162      6.9212571556      0.4642026974
 O     -1.0245344962      2.0404588086      0.3867497744
 O      6.1123258377      1.9686791416      0.4345521790
 O      2.2955588768      4.2069624041     -0.0220719542
 O      5.0587764583     -0.1918956566      3.8199312213
 O      1.6519958792      6.3879999775      3.8448577395
 O     -2.3639199957      4.4333134641      3.9056770152
 O      4.7212284525      4.3363187990      4.0519281674
 O      1.3143306123      1.9693118818      3.7521651590
 O      4.7681025776     -0.0255431815      6.8235742196
 O      0.7929808968      6.6260516440      6.7788106129
 O     -2.3886254293      4.3394609282      6.8380578931
 O      4.9290122010      4.4486011162      6.8731896972
 O      1.4728495648      2.0790945337      6.6278131702
 O      2.4707501721     -0.3426403438      3.2493693435
 O     -0.9714294234      6.4918750362      3.2946193589
 O     -1.1929785910      2.0416368325      3.2444509560
 O      6.1474204452      2.0266332108      3.3061718632
 O      2.3117172643      4.0254212095      3.0600191342
 H      5.1594841148     -0.8903224572      6.6570874876
 H      1.7666478296      6.6459015661      6.7993702368
 H     -2.9382350871      3.8960632902      6.1667395396
 H      5.3068712697      4.2996682539      5.9915131216
 H      1.9263252365     -0.6839351513      2.4652788801
 H     -1.6023479803      7.0644401653      3.7615267937
 H     -1.5765561924      1.3001618548      2.6899837383
 H      7.0488169574      1.7364166841      3.6000254460
60
# ORCA AIMD Position Step 88, t=44.00 fs, E_Pot=-1525.76118778 Hartree, Unit is Angstrom
 H      2.9282493230      0.1075770235      0.9251305704
 H     -1.2020826824      6.6439829379      1.3216748855
 H     -0.9459462233      2.3519356365      1.3153785303
 H      6.3016094839      1.9856982638      1.3583589389
 H      2.5327183689      4.3142349006      0.9162889423
 H      5.0247469253     -0.0790570365      4.7901453600
 H      1.2250068861      6.5607240679      4.7173296182
 H     -2.0723487328      4.6127920581      4.8164477220
 H      4.3342468419      3.8578991694      4.7962120536
 H      1.4250355706      1.9890424645      4.7373326035
 H      3.6936403589      0.4089112481     -0.3218566361
 H     -1.2412934994      6.1213451621     -0.0907346194
 H     -0.5272317505      2.6817771149     -0.2127577773
 H      5.1692348427      2.0654808183      0.2711665182
 H      2.2293164216      3.2006077616     -0.0703260563
 H      4.1127072505     -0.3316187039      3.5979235365
 H      0.8972757185      6.5597248456      3.2668863505
 H     -1.9555704945      3.5425212492      3.6463166662
 H      5.4155888387      3.7202169188      3.8271367848
 H      1.7781065289      2.8094868455      3.3736506286
 H      0.5279595452      5.6810526095      6.8387947648
 H     -2.5687564293      5.3099089647      6.7074906843
 H      0.5061138413      2.1543767636      6.7905316442
 H      5.5140331635      0.5317691193      7.0546279722
 H      1.7811583795      1.2033785481      6.9664221654
 H      4.9906071958      5.4449736422      6.8694851954
 H      1.9612871615      0.5282959609      3.3986433657
 H      5.5566835739      1.1680210782      3.4891088031
 H      3.2546324868      4.2156835466      3.2618812665
 H     -1.4017235022      5.5674751048      3.4053579304
 H      1.8759356690      4.8561140629      3.3995722961
 H     -0.1802296834      1.9757132118      3.4379722771
 O      2.8002003333      0.1600799980     -0.0081755814
 O     -1.2618871986      6.9243771949      0.4641248474
 O     -1.0211270612      2.0399061367      0.3841365732
 O      6.1081618093      1.9654535965      0.4349078819
 O      2.2918113011      4.2035347351     -0.0269728762
 O      5.0576660224     -0.1956903673      3.8193715818
 O      1.6548188256      6.3859777386      3.8430535918
 O     -2.3615949608      4.4303410708      3.9049842055
 O      4.7194759233      4.3325217279      4.0520577587
 O      1.3157360275      1.9654373988      3.7508784276
 O      4.7634345300     -0.0260863122      6.8247256854
 O      0.7883444178      6.6259204070      6.7795265586
 O     -2.3862839025      4.3395901424      6.8403096804
 O      4.9274135233      4.4498846875      6.8772100962
 O      1.4743296146      2.0784440599      6.6272528277
 O      2.4688043292     -0.3466426401      3.2506449795
 O     -0.9675859348      6.4909238524      3.2980103007
 O     -1.1927678651      2.0394527566      3.2483793381
 O      6.1448633669      2.0272804365      3.3104113762
 O      2.3100458415      4.0229174302      3.0587283374
 H      5.1605543370     -0.8975467233      6.6579381767
 H      1.7710701995      6.6427989806      6.8063626653
 H     -2.9376048680      3.8844511188      6.1563802305
 H      5.3055033234      4.2960121926      5.9838501194
 H      1.9327795987     -0.6818743115      2.4610696002
 H     -1.6051783443      7.0710757983      3.7765091762
 H     -1.5851475027      1.3013345341      2.6928643607
 H      7.0555107505      1.7322252621      3.6027502216
60
# ORCA AIMD Position Step 89, t=44.50 fs, E_Pot=-1525.76081696 Hartree, Unit is Angstrom
 H      2.9361476050      0.1196321832      0.9348362457
 H     -1.1989160862      6.6349903962      1.3180110938
 H     -0.9449793749      2.3741652736      1.3213144146
 H      6.2954762044      1.9900306411      1.3570442972
 H      2.5266395575      4.3002327371      0.9236385111
 H      5.0230143010     -0.0830029467      4.7952876948
 H      1.2238535047      6.5584813989      4.7237198523
 H     -2.0721820674      4.6212415794      4.8210669827
 H      4.3273582901      3.8514711686      4.8034498128
 H      1.4216684765      1.9801994588      4.7394900125
 H      3.7090099024      0.4139607124     -0.3239512053
 H     -1.2528978238      6.1247733412     -0.1009010666
 H     -0.5156748824      2.6679921286     -0.2196977724
 H      5.1550056647      2.0695364251      0.2566516483
 H      2.2313233538      3.1934992867     -0.0781701937
 H      4.1029826894     -0.3310716105      3.5978001967
 H      0.8987539463      6.5649162339      3.2638397348
 H     -1.9421941265      3.5430819321      3.6404502898
 H      5.4245214563      3.7103613788      3.8285455896
 H      1.7794439062      2.8107884183      3.3674563808
 H      0.5098234345      5.6725321272      6.8414109200
 H     -2.5743217871      5.3086513487      6.7090370888
 H      0.5015194537      2.1504732337      6.7922431240
 H      5.5288393502      0.5415744343      7.0592305927
 H      1.7954688524      1.1948523117      6.9661720171
 H      5.0045498612      5.4495958762      6.8627008072
 H      1.9639974141      0.5236328473      3.3856653154
 H      5.5602156576      1.1674007220      3.4824267827
 H      3.2418611041      4.2201720782      3.2414383736
 H     -1.4003336536      5.5826527697      3.3996713174
 H      1.8659791481      4.8631076439      3.4001108914
 H     -0.1796769334      1.9792848466      3.4355995772
 O      2.8038563806      0.1628063156     -0.0131224053
 O     -1.2607083417      6.9277159057      0.4633447070
 O     -1.0176405272      2.0394263499      0.3813989946
 O      6.1041003012      1.9621540367      0.4348814692
 O      2.2880429140      4.1998706279     -0.0318884314
 O      5.0566663470     -0.1995019586      3.8188731715
 O      1.6577256189      6.3839387049      3.8413686091
 O     -2.3592864070      4.4273114837      3.9042395429
 O      4.7176277432      4.3289095920      4.0522407590
 O      1.3170514526      1.9613493367      3.7496636044
 O      4.7586592389     -0.0266582147      6.8258043401
 O      0.7837063901      6.6257891585      6.7801917929
 O     -2.3839237049      4.3398059162      6.8424789552
 O      4.9258366626      4.4513112556      6.8812024172
 O      1.4758046139      2.0777836077      6.6266486218
 O      2.4666361900     -0.3506625310      3.2516904365
 O     -0.9637810072      6.4899493536      3.3014424142
 O     -1.1926808782      2.0372417791      3.2522543575
 O      6.1423925020      2.0278800676      3.3147482332
 O      2.3083726447      4.0204411064      3.0572977610
 H      5.1619176758     -0.9053092729      6.6591906167
 H      1.7745649161      6.6389025761      6.8136886690
 H     -2.9369843519      3.8738383562      6.1471166036
 H      5.3047392378      4.2925152730      5.9768112249
 H      1.9415889133     -0.6797771342      2.4596893149
 H     -1.6070986495      7.0772908293      3.7904431050
 H     -1.5915325185      1.3044716675      2.6977896440
 H      7.0596825924      1.7287993112      3.6045506457
60
# ORCA AIMD Position Step 90, t=45.00 fs, E_Pot=-1525.75986033 Hartree, Unit is Angstrom
 H      2.9445312100      0.1317726761      0.9471769853
 H     -1.1949582088      6.6225513550      1.3246078006
 H     -0.9435640529      2.3968287533      1.3247905761
 H      6.2883597393      1.9947754352      1.3609306004
 H      2.5198433691      4.2863254509      0.9303825799
 H      5.0209299562     -0.0869655627      4.8007186933
 H      1.2233447238      6.5557770222      4.7292733315
 H     -2.0712947711      4.6284840933      4.8256078085
 H      4.3189677342      3.8449423368      4.8112631284
 H      1.4184484209      1.9717595376      4.7415273281
 H      3.7233244881      0.4182814770     -0.3256778207
 H     -1.2643654350      6.1289356348     -0.1101057518
 H     -0.5053501954      2.6526593221     -0.2237423949
 H      5.1407882393      2.0742983858      0.2436873927
 H      2.2334583754      3.1892986735     -0.0860948027
 H      4.0917516689     -0.3307791841      3.5966720569
 H      0.8983120533      6.5709127677      3.2597547751
 H     -1.9290520901      3.5437402223      3.6351287105
 H      5.4358074220      3.6977385520      3.8277359831
 H      1.7812502857      2.8129548479      3.3618487654
 H      0.4930004217      5.6656220142      6.8440694503
 H     -2.5802388249      5.3051087367      6.7109201179
 H      0.4986596775      2.1454781484      6.7942543398
 H      5.5429440235      0.5507443404      7.0637429766
 H      1.8083269229      1.1884072677      6.9653250657
 H      5.0179922268      5.4518289508      6.8564241919
 H      1.9677639352      0.5192705263      3.3733869694
 H      5.5652618390      1.1678669309      3.4750420503
 H      3.2319270264      4.2246918511      3.2213426523
 H     -1.3993476030      5.5984331623      3.3937428983
 H      1.8560589171      4.8707241100      3.4009245399
 H     -0.1797747965      1.9815729389      3.4323251676
 O      2.8075949402      0.1656178947     -0.0182384931
 O     -1.2595837240      6.9312470653      0.4618595107
 O     -1.0140719284      2.0390444076      0.3786366828
 O      6.1000433970      1.9587850742      0.4344331769
 O      2.2842709248      4.1959556293     -0.0367524008
 O      5.0557303577     -0.2033328148      3.8184587577
 O      1.6606762291      6.3818923050      3.8398326782
 O     -2.3569822812      4.4242297375      3.9034770610
 O      4.7157251981      4.3253990589      4.0525041407
 O      1.3182836005      1.9570664867      3.7485189932
 O      4.7539237905     -0.0272197835      6.8268387087
 O      0.7790933772      6.6255920084      6.7808093550
 O     -2.3815906357      4.3400668844      6.8445091098
 O      4.9243151639      4.4528973102      6.8850992539
 O      1.4772637076      2.0770588439      6.6260270882
 O      2.4642731087     -0.3547053027      3.2525192553
 O     -0.9600440964      6.4890648080      3.3049506069
 O     -1.1927230810      2.0350208916      3.2560809059
 O      6.1400552020      2.0284301197      3.3191862640
 O      2.3065854920      4.0180286014      3.0557248241
 H      5.1632113569     -0.9127166588      6.6610131492
 H      1.7762523365      6.6340785718      6.8213314494
 H     -2.9356186918      3.8648971443      6.1398640398
 H      5.3041333593      4.2893027275      5.9713766494
 H      1.9524785283     -0.6779496507      2.4607113564
 H     -1.6072339130      7.0823187846      3.8026529299
 H     -1.5956827902      1.3094299656      2.7046202501
 H      7.0607688354      1.7263341238      3.6052589831
60
# ORCA AIMD Position Step 91, t=45.50 fs, E_Pot=-1525.75817863 Hartree, Unit is Angstrom
 H      2.9531005846      0.1440821892      0.9600706905
 H     -1.1903591630      6.6073357337      1.3392524101
 H     -0.9418140229      2.4193333362      1.3246938487
 H      6.2800535492      1.9999755608      1.3695185552
 H      2.5121044898      4.2725122654      0.9356300978
 H      5.0185012116     -0.0909807613      4.8058325728
 H      1.2237578567      6.5524824339      4.7333951654
 H     -2.0698164713      4.6342899778      4.8293675877
 H      4.3095672927      3.8387830770      4.8187156782
 H      1.4154016628      1.9637758076      4.7431668899
 H      3.7358047874      0.4216486143     -0.3267819629
 H     -1.2756831884      6.1341387790     -0.1181268807
 H     -0.4960258608      2.6361425609     -0.2252260801
 H      5.1280138770      2.0796257438      0.2326321110
 H      2.2356850067      3.1879753765     -0.0941602838
 H      4.0798985500     -0.3306331142      3.5947650632
 H      0.8964470923      6.5775941430      3.2550559768
 H     -1.9162452855      3.5446371923      3.6305423431
 H      5.4480553370      3.6833975933      3.8252400545
 H      1.7833960250      2.8156383714      3.3571059647
 H      0.4778598211      5.6612249154      6.8467213220
 H     -2.5865547349      5.2994895926      6.7131024347
 H      0.4979830611      2.1393001281      6.7965106555
 H      5.5547034168      0.5580440531      7.0676574589
 H      1.8193772086      1.1847559919      6.9636293384
 H      5.0308487390      5.4515263913      6.8507472517
 H      1.9723736159      0.5156216487      3.3620470455
 H      5.5715334229      1.1691306508      3.4671219149
 H      3.2258954254      4.2294441781      3.2018703774
 H     -1.3992444174      5.6136207574      3.3877193274
 H      1.8466375079      4.8782765165      3.4017678898
 H     -0.1803654105      1.9824810061      3.4281899835
 O      2.8114851719      0.1685238614     -0.0234085412
 O     -1.2585049066      6.9349106721      0.4597940926
 O     -1.0104292147      2.0387723595      0.3759429499
 O      6.0959126844      1.9553529307      0.4335719088
 O      2.2805110566      4.1917905975     -0.0415050277
 O      5.0548042192     -0.2071852967      3.8181488110
 O      1.6636218451      6.3798494824      3.8384563072
 O     -2.3546706198      4.4211023268      3.9027300263
 O      4.7138229090      4.3218938827      4.0528720168
 O      1.3194409761      1.9526088220      3.7474421789
 O      4.7493520565     -0.0277433862      6.8278515849
 O      0.7745232633      6.6252769815      6.7813818437
 O     -2.3793161332      4.3403290511      6.8463589327
 O      4.9228765013      4.4546474734      6.8888454591
 O      1.4787013242      2.0762298372      6.6254073899
 O      2.4617544025     -0.3587715662      3.2531622310
 O     -0.9563847372      6.4883779360      3.3085589818
 O     -1.1928916338      2.0328200363      3.2598747589
 O      6.1378841694      2.0289398898      3.3237219512
 O      2.3045874362      4.0157136090      3.0540109045
 H      5.1641024098     -0.9189741346      6.6635495786
 H      1.7754770930      6.6282367583      6.8292690445
 H     -2.9329534718      3.8581215782      6.1353044268
 H      5.3033247091      4.2864599746      5.9683162055
 H      1.9650102501     -0.6767915693      2.4634495686
 H     -1.6049506433      7.0856228231      3.8126356084
 H     -1.5977247570      1.3158380330      2.7130319212
 H      7.0585301135      1.7249395892      3.6048093972
60
# ORCA AIMD Position Step 92, t=46.00 fs, E_Pot=-1525.75602980 Hartree, Unit is Angstrom
 H      2.9615653682      0.1565966834      0.9715988795
 H     -1.1853642320      6.5904877928      1.3586272257
 H     -0.9398267046      2.4411547097      1.3202550855
 H      6.2702691561      2.0056335881      1.3816745269
 H      2.5032551373      4.2588326244      0.9386841994
 H      5.0157312184     -0.0950790836      4.8100818452
 H      1.2252874543      6.5485091276      4.7356662088
 H     -2.0678544608      4.6384631523      4.8317558845
 H      4.2996430096      3.8334141708      4.8249456496
 H      1.4125482808      1.9562914636      4.7441665830
 H      3.7459085868      0.4239087763     -0.3271038094
 H     -1.2868304588      6.1405229612     -0.1248375015
 H     -0.4873195692      2.6189491367     -0.2246794866
 H      5.1177941592      2.0853925631      0.2237690853
 H      2.2379558296      3.1892244407     -0.1024475107
 H      4.0683118736     -0.3305338125      3.5923109551
 H      0.8937845673      6.5847911788      3.2502636157
 H     -1.9038661224      3.5458759078      3.6268471252
 H      5.4598455347      3.6683874425      3.8216017958
 H      1.7857541585      2.8185056747      3.3534779337
 H      0.4646586731      5.6599371817      6.8493336564
 H     -2.5933447629      5.2922014854      6.7155371790
 H      0.4997184199      2.1318964170      6.7989796966
 H      5.5628886691      0.5625777872      7.0706044210
 H      1.8283969226      1.1843102832      6.9609444998
 H      5.0430499989      5.4487758583      6.8457660713
 H      1.9776066986      0.5130800182      3.3518549276
 H      5.5786599425      1.1708216394      3.4588422238
 H      3.2243770140      4.2345541194      3.1831895459
 H     -1.4005377068      5.6269829148      3.3817330494
 H      1.8381364479      4.8851768533      3.4024354314
 H     -0.1812860325      1.9819430987      3.4232499158
 O      2.8155807134      0.1715318800     -0.0285216225
 O     -1.2574578836      6.9386277836      0.4573487765
 O     -1.0067308450      2.0386088586      0.3734013776
 O      6.0916550284      1.9518653570      0.4323511955
 O      2.2767761473      4.1873912345     -0.0460973839
 O      5.0538342341     -0.2110612462      3.8179595501
 O      1.6665109323      6.3778217647      3.8372328982
 O     -2.3523409734      4.4179366100      3.9020265889
 O      4.7119774800      4.3183008592      4.0533635828
 O      1.3205330632      1.9479960232      3.7464295343
 O      4.7450383238     -0.0282121631      6.8288596227
 O      0.7700046828      6.6248086584      6.7819111130
 O     -2.3771168754      4.3405481600      6.8480035758
 O      4.9215406195      4.4565548507      6.8924008812
 O      1.4801174586      2.0752725607      6.6248005714
 O      2.4591283916     -0.3628560600      3.2536663562
 O     -0.9527945614      6.4879824533      3.3122805977
 O     -1.1931747942      2.0306811443      3.2636624076
 O      6.1358960797      2.0294291604      3.3283450290
 O      2.3023128848      4.0135276740      3.0521617890
 H      5.1643122324     -0.9234548058      6.6669053938
 H      1.7718413469      6.6213306913      6.8374789461
 H     -2.9286412471      3.8538092096      6.1338690513
 H      5.3020506435      4.2840173128      5.9681512668
 H      1.9786120243     -0.6767730585      2.4669887136
 H     -1.5998727164      7.0869123425      3.8200806836
 H     -1.5979381221      1.3231102202      2.7225253173
 H      7.0530579068      1.7246367444      3.6032354642
60
# ORCA AIMD Position Step 93, t=46.50 fs, E_Pot=-1525.75428473 Hartree, Unit is Angstrom
 H      2.9696655420      0.1693063512      0.9801904978
 H     -1.1802454116      6.5733010397      1.3792792072
 H     -0.9376850255      2.4618643169      1.3110511864
 H      6.2587065901      2.0117062655      1.3958742183
 H      2.4931920545      4.2453620537      0.9390823880
 H      5.0126217759     -0.0992812034      4.8130253859
 H      1.2280397882      6.5438107243      4.7358568507
 H     -2.0654833295      4.6408589816      4.8323449290
 H      4.2896268519      3.8291681989      4.8292429789
 H      1.4099031686      1.9493384814      4.7443430444
 H      3.7533481527      0.4249847204     -0.3265866148
 H     -1.2977870989      6.1480667523     -0.1302158123
 H     -0.4787168972      2.6016880339     -0.2227987778
 H      5.1108687868      2.0914986669      0.2172780672
 H      2.2402183014      3.1924805736     -0.1110604671
 H      4.0577945467     -0.3304023934      3.5895241403
 H      0.8909900474      6.5923047007      3.2459207189
 H     -1.8919930283      3.5475101959      3.6241576413
 H      5.4699035685      3.6536319339      3.8173223943
 H      1.7882086891      2.8212580157      3.3511736827
 H      0.4535275335      5.6620370249      6.8518910148
 H     -2.6007097326      5.2838167093      6.7181726996
 H      0.5038654737      2.1232708227      6.8016546807
 H      5.5666789710      0.5637807888      7.0723470190
 H      1.8353071843      1.1871755438      6.9572417562
 H      5.0545519587      5.4438971540      6.8415765797
 H      1.9832573702      0.5119716969      3.3429765858
 H      5.5862104329      1.1725108443      3.4503776967
 H      3.2273813949      4.2400212912      3.1653637675
 H     -1.4036969171      5.6374190140      3.3758856431
 H      1.8309168446      4.8909525711      3.4027651918
 H     -0.1823851634      1.9799243347      3.4175710986
 O      2.8199171973      0.1746477405     -0.0334822687
 O     -1.2564268809      6.9423206273      0.4547390460
 O     -1.0030044302      2.0385401936      0.3710836944
 O      6.0872415323      1.9483312598      0.4308556954
 O      2.2730753513      4.1827874667     -0.0504937662
 O      5.0527721364     -0.2149617246      3.8179014355
 O      1.6692951825      6.3758202998      3.8361425033
 O     -2.3499853265      4.4147402672      3.9013868832
 O      4.7102396753      4.3145404222      4.0539915013
 O      1.3215697682      1.9432464048      3.7454756689
 O      4.7410467468     -0.0286169931      6.8298741027
 O      0.7655370497      6.6241691166      6.7823980093
 O     -2.3749952760      4.3406821083      6.8494343536
 O      4.9203191851      4.4586016153      6.8957414535
 O      1.4815175517      2.0741793684      6.6242093053
 O      2.4564479964     -0.3669470440      3.2540913168
 O     -0.9492521385      6.4879474770      3.3161179601
 O     -1.1935521076      2.0286560327      3.2674798329
 O      6.1340900972      2.0299269128      3.3330392089
 O      2.2997379800      4.0115018353      3.0501871424
 H      5.1636320379     -0.9257397234      6.6711410592
 H      1.7652178541      6.6133549557      6.8459431888
 H     -2.9225361948      3.8520561529      6.1357381750
 H      5.3001501844      4.2819418372      5.9711441183
 H      1.9926296241     -0.6783973567      2.4702532793
 H     -1.5918824641      7.0861444118      3.8248782871
 H     -1.5967409518      1.3304791843      2.7324514429
 H      7.0447760250      1.7253550295      3.6006659541
60
# ORCA AIMD Position Step 94, t=47.00 fs, E_Pot=-1525.75396702 Hartree, Unit is Angstrom
 H      2.9771796609      0.1821655137      0.9846929312
 H     -1.1752497904      6.5569713640      1.3982463479
 H     -0.9354595419      2.4811530599      1.2969988863
 H      6.2451225489      2.0181098535      1.4104744726
 H      2.4818773343      4.2322048035      0.9366161950
 H      5.0091754324     -0.1035950916      4.8143609677
 H      1.2320313621      6.5383826517      4.7339314869
 H     -2.0627393175      4.6413972729      4.8308999215
 H      4.2798649063      3.8262678043      4.8310940767
 H      1.4074765769      1.9429365904      4.7435879807
 H      3.7580940194      0.4248744682     -0.3252781149
 H     -1.3085405914      6.1566054253     -0.1343455320
 H     -0.4696130231      2.5850069176     -0.2203885356
 H      5.1076001456      2.0978772463      0.2132215551
 H      2.2424208816      3.1969474529     -0.1201271611
 H      4.0490060683     -0.3301870495      3.5865865677
 H      0.8886904048      6.5999256770      3.2425291750
 H     -1.8806868018      3.5495389703      3.6225426208
 H      5.4771911605      3.6398717799      3.8128326791
 H      1.7906582539      2.8236419390      3.3503536523
 H      0.4444610568      5.6674826322      6.8543964201
 H     -2.6087690651      5.2750187384      6.7209593601
 H      0.5101961526      2.1134693534      6.8045564975
 H      5.5656309932      0.5613927776      7.0727690023
 H      1.8401815656      1.1931494327      6.9526023243
 H      5.0653434398      5.4374264634      6.8382700151
 H      1.9891517447      0.5125087833      3.3355226061
 H      5.5937243761      1.1737442437      3.4418922015
 H      3.2343083138      4.2457018986      3.1483835770
 H     -1.4090482034      5.6441525063      3.3702372696
 H      1.8252690783      4.8952458867      3.4026359303
 H     -0.1835341029      1.9764204805      3.4112262046
 O      2.8245114342      0.1778747803     -0.0382148604
 O     -1.2553971377      6.9459268631      0.4521562323
 O     -0.9992839105      2.0385428866      0.3690465742
 O      6.0826637283      1.9447598694      0.4291849920
 O      2.2694137196      4.1780220560     -0.0546729017
 O      5.0515784302     -0.2188869869      3.8179781505
 O      1.6719345606      6.3738549324      3.8351556040
 O     -2.3475986695      4.4115207365      3.9008212828
 O      4.7086507563      4.3105519091      4.0547605749
 O      1.3225610921      1.9383763502      3.7445729987
 O      4.7374126930     -0.0289535360      6.8309018134
 O      0.7611110186      6.6233583753      6.7828420615
 O     -2.3729402047      4.3406944679      6.8506583666
 O      4.9192151909      4.4607602160      6.8988594931
 O      1.4829118705      2.0729593590      6.6236278036
 O      2.4537646595     -0.3710270628      3.2545024346
 O     -0.9457292093      6.4883057433      3.3200633152
 O     -1.1939960965      2.0268023881      3.2713696128
 O      6.1324464069      2.0304692096      3.3377831615
 O      2.2968817504      4.0096675217      3.0480986910
 H      5.1619320999     -0.9256380749      6.6762699931
 H      1.7557519204      6.6043403677      6.8546536997
 H     -2.9146897588      3.8527540386      6.1408409171
 H      5.2975640710      4.2801338155      5.9773001937
 H      2.0064064746     -0.6821439686      2.4721303277
 H     -1.5811194502      7.0835222075      3.8271242137
 H     -1.5946538688      1.3370589960      2.7420613596
 H      7.0344321540      1.7269316910      3.5973171878
60
# ORCA AIMD Position Step 95, t=47.50 fs, E_Pot=-1525.75562667 Hartree, Unit is Angstrom
 H      2.9839257114      0.1951044233      0.9843811732
 H     -1.1705744650      6.5424801963      1.4132872501
 H     -0.9332096296      2.4988568815      1.2783545920
 H      6.2293779617      2.0247317353      1.4239342913
 H      2.4693352343      4.2194848927      0.9313361154
 H      5.0053968075     -0.1080140952      4.8139454661
 H      1.2371903828      6.5322602406      4.7300465289
 H     -2.0596169525      4.6400712593      4.8273963284
 H      4.2705986269      3.8248159484      4.8302019415
 H      1.4052742013      1.9370925605      4.7418769723
 H      3.7603728750      0.4236478428     -0.3233280155
 H     -1.3190912426      6.1658606235     -0.1374045722
 H     -0.4593834228      2.5695074556     -0.2182745823
 H      5.1079874201      2.1045017519      0.2115408204
 H      2.2445194193      3.2016552740     -0.1297976647
 H      4.0424310085     -0.3298651061      3.5836390433
 H      0.8874151162      6.6074539710      3.2405026007
 H     -1.8699875153      3.5519041024      3.6220221857
 H      5.4809354443      3.6276535902      3.8084843512
 H      1.7930149783      2.8254495350      3.3511275303
 H      0.4373105617      5.6759121603      6.8568726395
 H     -2.6176474737      5.2665274131      6.7238586071
 H      0.5182675226      2.1025740315      6.8077342043
 H      5.5596582633      0.5554387598      7.0718659658
 H      1.8432528460      1.2017222402      6.9472155238
 H      5.0754507509      5.4300830868      6.8359284243
 H      1.9951596776      0.5147543266      3.3295402173
 H      5.6007525866      1.1740904170      3.4335302610
 H      3.2440873707      4.2513314841      3.1322126249
 H     -1.4166830425      5.6468878605      3.3648078838
 H      1.8214068334      4.8978099987      3.4019636274
 H     -0.1846309675      1.9714566511      3.4042922351
 O      2.8293614253      0.1812133389     -0.0426643326
 O     -1.2543561404      6.9494048909      0.4497524460
 O     -0.9956050004      2.0385874976      0.3673262197
 O      6.0779298399      1.9411595800      0.4274399895
 O      2.2657920317      4.1731475386     -0.0586284234
 O      5.0502241402     -0.2228366866      3.8181859502
 O      1.6744008865      6.3719332960      3.8342362195
 O     -2.3451795099      4.4082846691      3.9003294132
 O      4.7072418458      4.3062950129      4.0556667901
 O      1.3235169882      1.9334003026      3.7437114675
 O      4.7341437146     -0.0292204268      6.8319455365
 O      0.7567094271      6.6223948086      6.7832411004
 O     -2.3709278058      4.3405594568      6.8516982522
 O      4.9182227874      4.4629955015      6.9017637555
 O      1.4843142601      2.0716387621      6.6230418532
 O      2.4511211882     -0.3750755301      3.2549600046
 O     -0.9421964186      6.4890441788      3.3240983111
 O     -1.1944759812      2.0251772329      3.2753758846
 O      6.1309256429      2.0310958796      3.3425518776
 O      2.2937977561      4.0080554153      3.0459076157
 H      5.1591671715     -0.9231963954      6.6822590557
 H      1.7438542624      6.5943478544      6.8636175955
 H     -2.9053507766      3.8555858681      6.1488501103
 H      5.2943341035      4.2784265397      5.9863734278
 H      2.0193858450     -0.6883934759      2.4716454472
 H     -1.5679788107      7.0794920041      3.8271234543
 H     -1.5922370460      1.3419488127      2.7505873524
 H      7.0230657333      1.7291175644      3.5934784464
60
# ORCA AIMD Position Step 96, t=48.00 fs, E_Pot=-1525.75900155 Hartree, Unit is Angstrom
 H      2.9897598147      0.2080421969      0.9789428615
 H     -1.1663618238      6.5305678075      1.4228617475
 H     -0.9309847787      2.5149892161      1.2557193590
 H      6.2114574016      2.0314440133      1.4349533863
 H      2.4556454654      4.2073347381      0.9235515007
 H      5.0012928038     -0.1125160108      4.8118044950
 H      1.2433600856      6.5255148634      4.7245464321
 H     -2.0560681457      4.6369513203      4.8220222646
 H      4.2619529724      3.8247940023      4.8264924040
 H      1.4032969558      1.9317996122      4.7392755065
 H      3.7606582288      0.4214389692     -0.3209826158
 H     -1.3294570434      6.1754714892     -0.1396508204
 H     -0.4474807451      2.5556445651     -0.2171916566
 H      5.1116808261      2.1113949995      0.2120551541
 H      2.2464841226      3.2055527634     -0.1402382657
 H      4.0383683545     -0.3294409952      3.5807774326
 H      0.8875595469      6.6147130971      3.2401376848
 H     -1.8599129401      3.5544935999      3.6225670883
 H      5.4806223222      3.6173429794      3.8045521995
 H      1.7952028303      2.8265166524      3.3535542438
 H      0.4317787191      5.6866483405      6.8593637186
 H     -2.6274561654      5.2590073957      6.7268537715
 H      0.5274508719      2.0906943788      6.8112635283
 H      5.5490317188      0.5462259975      7.0697433852
 H      1.8449156746      1.2120862754      6.9413738945
 H      5.0849389448      5.4227143571      6.8346208989
 H      2.0011986373      0.5186072389      3.3250099856
 H      5.6069001314      1.1731894877      3.4254113526
 H      3.2553928707      4.2565741562      3.1168254081
 H     -1.4264180793      5.6458622997      3.3595914206
 H      1.8194649309      4.8985021358      3.4006973535
 H     -0.1856075096      1.9650857736      3.3968473145
 O      2.8344469646      0.1846603967     -0.0467955188
 O     -1.2532936074      6.9527333305      0.4476409434
 O     -0.9919990214      2.0386429955      0.3659310967
 O      6.0730627872      1.9375365452      0.4257142364
 O      2.2622068300      4.1682211396     -0.0623692582
 O      5.0486913792     -0.2268101068      3.8185133564
 O      1.6766799052      6.3700601861      3.8333440257
 O     -2.3427300745      4.4050374996      3.8999000164
 O      4.7060351694      4.3017492155      4.0566966872
 O      1.3244473824      1.9283309037      3.7428783414
 O      4.7312195153     -0.0294191168      6.8330038866
 O      0.7523089897      6.6213153405      6.7835907448
 O     -2.3689225673      4.3402679475      6.8525919474
 O      4.9173274023      4.4652680105      6.9044791991
 O      1.4857401214      2.0702609076      6.6224291282
 O      2.4485452561     -0.3790727876      3.2555074036
 O     -0.9386260969      6.4901012640      3.3281931270
 O     -1.1949628019      2.0238280685      3.2795374503
 O      6.1294704513      2.0318463817      3.3473185375
 O      2.2905606785      4.0066929202      3.0436224706
 H      5.1553769729     -0.9186979398      6.6890322175
 H      1.7301804341      6.5834609833      6.8728630730
 H     -2.8949671627      3.8600225919      6.1591745917
 H      5.2906010658      4.2765894650      5.9978743896
 H      2.0312106962     -0.6973490520      2.4681539028
 H     -1.5531066145      7.0747365929      3.8253905511
 H     -1.5900032766      1.3443738539      2.7573531984
 H      7.0119401108      1.7315932355      3.5894874301
60
# ORCA AIMD Position Step 97, t=48.50 fs, E_Pot=-1525.76308646 Hartree, Unit is Angstrom
 H      2.9945757465      0.2208939406      0.9684723518
 H     -1.1627060180      6.5217602638      1.4260219586
 H     -0.9288218371      2.5297683301      1.2300482410
 H      6.1914766592      2.0381113487      1.4425409133
 H      2.4409383143      4.1958840884      0.9138245654
 H      4.9968724701     -0.1170625641      4.8081326290
 H      1.2503052144      6.5182487805      4.7179500828
 H     -2.0520038706      4.6321824699      4.8151691061
 H      4.2539295566      3.8260603772      4.8201168197
 H      1.4015413742      1.9270380623      4.7359379558
 H      3.7596490032      0.4184384241     -0.3185742629
 H     -1.3396691611      6.1850394970     -0.1413880339
 H     -0.4335459822      2.5436404504     -0.2176683275
 H      5.1180053737      2.1186325456      0.2144696497
 H      2.2483020313      3.2076378182     -0.1516147743
 H      4.0369318395     -0.3289463161      3.5780518282
 H      0.8893607179      6.6215614787      3.2415949854
 H     -1.8504624487      3.5571464334      3.6241011885
 H      5.4759866376      3.6091378458      3.8012367792
 H      1.7971560646      2.8267241917      3.3576416580
 H      0.4274227286      5.6987130218      6.8619352527
 H     -2.6382655987      5.2529747116      6.7299580967
 H      0.5369794587      2.0779594172      6.8152405044
 H      5.5344061362      0.5343592606      7.0666227814
 H      1.8457154864      1.2231650018      6.9354615652
 H      5.0939011342      5.4162097349      6.8344014328
 H      2.0072277508      0.5238046934      3.3218502312
 H      5.6118671143      1.1708013244      3.4176329781
 H      3.2668545290      4.2610774361      3.1022304889
 H     -1.4378188359      5.6417721646      3.3545808021
 H      1.8195024714      4.8972683101      3.3988143570
 H     -0.1864309564      1.9573867752      3.3889729966
 O      2.8397309610      0.1882095889     -0.0505933617
 O     -1.2522013865      6.9559063045      0.4459008553
 O     -0.9884861277      2.0386804013      0.3648343333
 O      6.0680983166      1.9338939601      0.4240892091
 O      2.2586506035      4.1632972459     -0.0659202270
 O      5.0469733503     -0.2308062137      3.8189412524
 O      1.6787723600      6.3682374934      3.8324365535
 O     -2.3402561513      4.4017833248      3.8995114362
 O      4.7050455314      4.2969130837      4.0578271237
 O      1.3253621603      1.9231793060      3.7420583772
 O      4.7285905137     -0.0295553991      6.8340706006
 O      0.7478826443      6.6201749990      6.7838842697
 O     -2.3668791916      4.3398328683      6.8533919894
 O      4.9165067170      4.4675388320      6.9070459645
 O      1.4872040771      2.0688849154      6.6217602301
 O      2.4460457994     -0.3830043699      3.2561607544
 O     -0.9349922128      6.4913735636      3.3323060661
 O     -1.1954353131      2.0227831652      3.2838795754
 O      6.1280111362      2.0327545285      3.3520566427
 O      2.2872526407      4.0056012761      3.0412479988
 H      5.1506830566     -0.9126535864      6.6964743273
 H      1.7155914332      6.5717790310      6.8824399517
 H     -2.8841822165      3.8653323154      6.1709606077
 H      5.2865997362      4.2743372895      6.0110887585
 H      2.0417852206     -0.7089722557      2.4614977366
 H     -1.5373768243      7.0701465047      3.8226309893
 H     -1.5883205503      1.3438409611      2.7618973657
 H      7.0024115100      1.7340042661      3.5856921279
60
# ORCA AIMD Position Step 98, t=49.00 fs, E_Pot=-1525.76660012 Hartree, Unit is Angstrom
 H      2.9983090271      0.2335863213      0.9534756787
 H     -1.1596577320      6.5163873066      1.4223039738
 H     -0.9267469450      2.5436497905      1.2026299068
 H      6.1696662025      2.0446031376      1.4460397923
 H      2.4253791614      4.1852452356      0.9029439799
 H      4.9921460260     -0.1215999905      4.8032833362
 H      1.2577261388      6.5105866310      4.7109270733
 H     -2.0472967425      4.6259795249      4.8074087379
 H      4.2464004717      3.8283577717      4.8114424267
 H      1.3999981874      1.9227750688      4.7320979665
 H      3.7582272476      0.4148746772     -0.3165042337
 H     -1.3497736027      6.1941738343     -0.1429384187
 H     -0.4174894333      2.5334290180     -0.2199418037
 H      5.1259864259      2.1263551736      0.2183797168
 H      2.2499815182      3.2071153724     -0.1640738083
 H      4.0380563476     -0.3284336264      3.5754666344
 H      0.8928902201      6.6279020877      3.2448954535
 H     -1.8416165145      3.5596650078      3.6265045058
 H      5.4669959686      3.6030790506      3.7986664254
 H      1.7988144013      2.8259842104      3.3633527872
 H      0.4236697749      5.7108805062      6.8646734428
 H     -2.6500843376      5.2487137328      6.7332201173
 H      0.5460286054      2.0645048381      6.8197714645
 H      5.5168616861      0.5207654106      7.0628518262
 H      1.8463177789      1.2336915817      6.9299250490
 H      5.1024476546      5.4113940766      6.8353068081
 H      2.0132374397      0.5299537670      3.3199245130
 H      5.6154829067      1.1668445836      3.4102710701
 H      3.2772220643      4.2645196607      3.0884710176
 H     -1.4502774860      5.6356226340      3.3497851697
 H      1.8214972331      4.8941565975      3.3963240420
 H     -0.1871033238      1.9484628540      3.3807509047
 O      2.8451618477      0.1918513913     -0.0540642899
 O     -1.2510730582      6.9589292366      0.4445822440
 O     -0.9850701367      2.0386742642      0.3639697260
 O      6.0630844170      1.9302305608      0.4226324097
 O      2.2551125129      4.1584183606     -0.0693216511
 O      5.0450740148     -0.2348240335      3.8194435856
 O      1.6806935537      6.3664637227      3.8314709005
 O     -2.3377670742      4.3985244615      3.8991329477
 O      4.7042816765      4.2918030669      4.0590258574
 O      1.3262712721      1.9179556301      3.7412342677
 O      4.7261757720     -0.0296424035      6.8351333037
 O      0.7434034019      6.6190441326      6.7841123774
 O     -2.3647456839      4.3392926003      6.8541629980
 O      4.9157321911      4.4697754660      6.9095172698
 O      1.4887168423      2.0675815820      6.6210010785
 O      2.4436135557     -0.3868641130      3.2569057223
 O     -0.9312693643      6.4927291478      3.3363856394
 O     -1.1958842884      2.0220443204      3.2884084983
 O      6.1264755176      2.0338426115      3.3567434599
 O      2.2839532930      4.0047926862      3.0387847834
 H      5.1452804148     -0.9057788501      6.7044400342
 H      1.7010782610      6.5594075019      6.8924219714
 H     -2.8738066886      3.8706101021      6.1831253606
 H      5.2826465285      4.2713446322      6.0251120420
 H      2.0512758867     -0.7229656566      2.4520495336
 H     -1.5218277816      7.0667611979      3.8196923104
 H     -1.5873428691      1.3402532021      2.7640616303
 H      6.9957401954      1.7360170147      3.5823969571
60
# ORCA AIMD Position Step 99, t=49.50 fs, E_Pot=-1525.76867321 Hartree, Unit is Angstrom
 H      3.0009440424      0.2460694043      0.9348897629
 H     -1.1572277279      6.5145969108      1.4116648119
 H     -0.9247756959      2.5573246160      1.1750181602
 H      6.1463572787      2.0507998458      1.4451331377
 H      2.4091527606      4.1754994352      0.8918770937
 H      4.9871237574     -0.1260605015      4.7977464143
 H      1.2652821049      6.5026639561      4.7042504981
 H     -2.0417901446      4.6186129146      4.7994479173
 H      4.2391080699      3.8313234049      4.8010368337
 H      1.3986516685      1.9189655588      4.7280520465
 H      3.7573810833      0.4109907014     -0.3152132070
 H     -1.3598232013      6.2025443703     -0.1446015143
 H     -0.3995231239      2.5246664776     -0.2239330970
 H      5.1344144740      2.1347686086      0.2232893706
 H      2.2515495969      3.2035434559     -0.1777140625
 H      4.0415065512     -0.3279734145      3.5729817730
 H      0.8980503691      6.6336898082      3.2499193326
 H     -1.8333425106      3.5618289244      3.6296199544
 H      5.4538500398      3.5990455296      3.7968931344
 H      1.8001214479      2.8242358901      3.3706088244
 H      0.4198594068      5.7217838710      6.8676787594
 H     -2.6628414745      5.2462335655      6.7367203207
 H      0.5538186338      2.0504629132      6.8249560522
 H      5.4979287244      0.5067021497      7.0589095631
 H      1.8474425326      1.2423490693      6.9252224969
 H      5.1106835735      5.4089064075      6.8373557317
 H      2.0192350721      0.5365718388      3.3190546255
 H      5.6177221813      1.1614133812      3.4033882365
 H      3.2854536780      4.2666381065      3.0756144906
 H     -1.4631122641      5.6285446584      3.3452417338
 H      1.8253455943      4.8893194150      3.3932701350
 H     -0.1876610291      1.9384400760      3.3722642608
 O      2.8506780245      0.1955738552     -0.0572392811
 O     -1.2499042560      6.9618144882      0.4437074183
 O     -0.9817365221      2.0386020341      0.3632346234
 O      6.0580780491      1.9265402413      0.4213958012
 O      2.2515795315      4.1536067124     -0.0726281313
 O      5.0430077025     -0.2388627533      3.8199887912
 O      1.6824721476      6.3647342177      3.8304068511
 O     -2.3352749750      4.3952614903      3.8987273748
 O      4.7037466338      4.2864530298      4.0602530699
 O      1.3271847176      1.9126692419      3.7403876081
 O      4.7238625061     -0.0297041592      6.8361723890
 O      0.7388487371      6.6180021194      6.7842639245
 O     -2.3624687595      4.3387089947      6.8549759974
 O      4.9149720894      4.4719578927      6.9119549581
 O      1.4902828631      2.0664251918      6.6201170853
 O      2.4412259716     -0.3906547456      3.2577014065
 O     -0.9274340439      6.4940266600      3.3403761232
 O     -1.1963136934      2.0215845436      3.2931092063
 O      6.1248023980      2.0351160455      3.3613631126
 O      2.2807340573      4.0042685691      3.0362295340
 H      5.1394204136     -0.8989461574      6.7127654561
 H      1.6876504701      6.5464514525      6.9028993539
 H     -2.8647496352      3.8748541958      6.1944492319
 H      5.2791138341      4.2672718010      6.0389208815
 H      2.0600456889     -0.7388049734      2.4406366093
 H     -1.5075416737      7.0656512577      3.8174641486
 H     -1.5869890157      1.3339468197      2.7640217764
 H      6.9928618909      1.7373882906      3.5798060868
60
# ORCA AIMD Position Step 100, t=50.00 fs, E_Pot=-1525.76939455 Hartree, Unit is Angstrom
 H      3.0025235496      0.2583316803      0.9140951929
 H     -1.1553855920      6.5163474771      1.3944728463
 H     -0.9229175709      2.5716646702      1.1488788182
 H      6.1219631231      2.0566001821      1.4398472061
 H      2.3924413056      4.1666843154      0.8816839375
 H      4.9818149445     -0.1303657221      4.7921087673
 H      1.2726266888      6.4946123866      4.6987228358
 H     -2.0353147419      4.6103869526      4.7920566493
 H      4.2316753488      3.8345116856      4.7896319428
 H      1.3974784340      1.9155531919      4.7241339516
 H      3.7580882641      0.4070120016     -0.3151377452
 H     -1.3698683474      6.2099303086     -0.1466165051
 H     -0.3801254943      2.5168003211     -0.2292897760
 H      5.1419616431      2.1441315660      0.2286407867
 H      2.2530459731      3.1969241786     -0.1925581849
 H      4.0468888070     -0.3276499265      3.5705148329
 H      0.9045775707      6.6389372999      3.2564122171
 H     -1.8256016452      3.5634126298      3.6332622989
 H      5.4369869860      3.5967383979      3.7958837817
 H      1.8010233495      2.8214392679      3.3792934957
 H      0.4153169471      5.7300923290      6.8710528138
 H     -2.6763833272      5.2452730013      6.7405602848
 H      0.5597319867      2.0359548002      6.8308657894
 H      5.4795417623      0.4937112871      7.0553902216
 H      1.8497652228      1.2479757321      6.9217500211
 H      5.1186855470      5.4090938237      6.8405469733
 H      2.0252312746      0.5431344350      3.3190349124
 H      5.6187007795      1.1547677513      3.3970417757
 H      3.2907526414      4.2672424484      3.0637369436
 H     -1.4756548419      5.6216436314      3.3410161679
 H      1.8308610103      4.8830238653      3.3897359344
 H     -0.1881725933      1.9274663100      3.3635990663
 O      2.8562146746      0.1993637035     -0.0601774439
 O     -1.2486933670      6.9645787532      0.4432690664
 O     -0.9784543802      2.0384430835      0.3625023010
 O      6.0531388449      1.9228123569      0.4204136886
 O      2.2480381599      4.1488592500     -0.0759049116
 O      5.0407985563     -0.2429217413      3.8205422159
 O      1.6841477762      6.3630415218      3.8292111893
 O     -2.3327934808      4.3919934953      3.8982552468
 O      4.7034367868      4.2809136454      4.0614644858
 O      1.3281124975      1.9073289252      3.7395003653
 O      4.7215106732     -0.0297777134      6.8371609420
 O      0.7342050496      6.6171263687      6.7843275264
 O     -2.3600018825      4.3381589144      6.8558984487
 O      4.9141956443      4.4740829704      6.9144225092
 O      1.4918991794      2.0654810648      6.6190790716
 O      2.4388542801     -0.3943862788      3.2584901646
 O     -0.9234702891      6.4951359448      3.3442269178
 O     -1.1967381079      2.0213519124      3.2979481713
 O      6.1229545629      2.0365600803      3.3659088915
 O      2.2776558246      4.0040185251      3.0335754848
 H      5.1333836256     -0.8931046382      6.7212850088
 H      1.6761921806      6.5330121507      6.9139643147
 H     -2.8578936386      3.8770959144      6.2037443225
 H      5.2763872848      4.2618022520      6.0514858598
 H      2.0685530590     -0.7558133541      2.4283705989
 H     -1.4954658634      7.0677444263      3.8167289859
 H     -1.5869824642      1.3256293450      2.7622415816
 H      6.9941875781      1.7380282058      3.5779802015
60
# ORCA AIMD Position Step 101, t=50.50 fs, E_Pot=-1525.76975462 Hartree, Unit is Angstrom
 H      3.0031557593      0.2704151819      0.8928893691
 H     -1.1540529680      6.5213764254      1.3715536959
 H     -0.9211856769      2.5875887990      1.1257453254
 H      6.0969572076      2.0619292686      1.4305572189
 H      2.3753994583      4.1587849846      0.8733896277
 H      4.9762271425     -0.1344323112      4.7869971857
 H      1.2794532797      6.4865432059      4.6950762960
 H     -2.0277138418      4.6016110087      4.7859714880
 H      4.2236350391      3.8374332425      4.7780597025
 H      1.3964461719      1.9124714277      4.7206818539
 H      3.7611693561      0.4031112820     -0.3166543828
 H     -1.3799466290      6.2162558333     -0.1491327573
 H     -0.3599543299      2.5091730939     -0.2354768227
 H      5.1473608523      2.1547228133      0.2338577660
 H      2.2545146156      3.1877054099     -0.2085325275
 H      4.0536671035     -0.3275567052      3.5679448021
 H      0.9120530386      6.6437181894      3.2639986316
 H     -1.8183572883      3.5642044039      3.6372289977
 H      5.4170941009      3.5956553406      3.7955075371
 H      1.8014691758      2.8175716674      3.3892569788
 H      0.4094528464      5.7347434165      6.8748779735
 H     -2.6904852904      5.2453525687      6.7448467453
 H      0.5634190650      2.0210884109      6.8375217970
 H      5.4638493261      0.4834659408      7.0529447654
 H      1.8538008714      1.2497968439      6.9197588648
 H      5.1264834300      5.4119490981      6.8448558200
 H      2.0312294104      0.5491198961      3.3196460138
 H      5.6186527243      1.1473009732      3.3912901334
 H      3.2925732281      4.2662180109      3.0529072937
 H     -1.4873082714      5.6159018376      3.3371953420
 H      1.8377743040      4.8756616378      3.3858498081
 H     -0.1887352403      1.9157103901      3.3548456804
 O      2.8617126626      0.2032076431     -0.0629678883
 O     -1.2474426482      6.9672428408      0.4432254159
 O     -0.9751813109      2.0381805314      0.3616430572
 O      6.0483190086      1.9190332891      0.4196995210
 O      2.2444764807      4.1441480333     -0.0792211107
 O      5.0384797025     -0.2470004259      3.8210695828
 O      1.6857675681      6.3613759995      3.8278631214
 O     -2.3303357520      4.3887186184      3.8976804406
 O      4.7033393970      4.2752513529      4.0626164740
 O      1.3290644887      1.9019428792      3.7385568041
 O      4.7189672673     -0.0299107489      6.8380670904
 O      0.7294708754      6.6164774930      6.7842940923
 O     -2.3573152014      4.3377201196      6.8569808483
 O      4.9133779287      4.4761654187      6.9169758710
 O      1.4935560737      2.0647910766      6.6178698334
 O      2.4364702965     -0.3980731915      3.2592092079
 O     -0.9193785148      6.4959568971      3.3479035657
 O     -1.1971775845      2.0212779740      3.3028796186
 O      6.1209264949      2.0381399786      3.3703836726
 O      2.2747684951      4.0040199361      3.0308127647
 H      5.1274425799     -0.8891653065      6.7298521264
 H      1.6673118186      6.5191895416      6.9256893781
 H     -2.8539250135      3.8765718705      6.2100830982
 H      5.2748070825      4.2546905309      6.0619209042
 H      2.0772526204     -0.7732516200      2.4164497843
 H     -1.4862130221      7.0736256052      3.8179932257
 H     -1.5869334642      1.3162455524      2.7593712147
 H      6.9995064220      1.7380310240      3.5768249832
60
# ORCA AIMD Position Step 102, t=51.00 fs, E_Pot=-1525.77084290 Hartree, Unit is Angstrom
 H      3.0030114213      0.2824248709      0.8733702566
 H     -1.1530912237      6.5291449282      1.3442837905
 H     -0.9196100814      2.6058539741      1.1067246831
 H      6.0718470646      2.0667480394      1.4179918952
 H      2.3581320865      4.1517308894      0.8678273607
 H      4.9703663982     -0.1381800383      4.7830042949
 H      1.2855430463      6.4785327826      4.6938618067
 H     -2.0188764115      4.5925671036      4.7817839532
 H      4.2144843421      3.8396119580      4.7671559629
 H      1.3955126000      1.9096445707      4.7180013036
 H      3.7671403184      0.3993790796     -0.3200199129
 H     -1.3900735979      6.2216033572     -0.1521956645
 H     -0.3397392076      2.5011278290     -0.2418830540
 H      5.1496270414      2.1667847632      0.2383983234
 H      2.2559950400      3.1766906807     -0.2254619313
 H      4.0611881530     -0.3277916988      3.5651190856
 H      0.9199251143      6.6481649962      3.2722063008
 H     -1.8115846765      3.5640258790      3.6413123821
 H      5.3951118598      3.5950642415      3.7955240102
 H      1.8014135845      2.8126290149      3.4003185511
 H      0.4018648757      5.7351719408      6.8791934116
 H     -2.7048754563      5.2458584681      6.7496750594
 H      0.5648630539      2.0059630194      6.8448774284
 H      5.4528337597      0.4774832799      7.0521677755
 H      1.8598067139      1.2476070966      6.9192905781
 H      5.1340527291      5.4171127924      6.8502290701
 H      2.0372189497      0.5540455113      3.3206665378
 H      5.6178932123      1.1394905364      3.3861966657
 H      3.2906164106      4.2635237445      3.0431747045
 H     -1.4975763922      5.6121283237      3.3338767097
 H      1.8457384168      4.8677517321      3.3817881719
 H     -0.1894701701      1.9033615266      3.3461007144
 O      2.8671280743      0.2070936509     -0.0657261812
 O     -1.2461596195      6.9698344402      0.4434933712
 O     -0.9718693586      2.0378076859      0.3605494054
 O      6.0436508487      1.9151894198      0.4192421920
 O      2.2408860771      4.1394260780     -0.0826401210
 O      5.0360918087     -0.2510979731      3.8215412946
 O      1.6873817657      6.3597267023      3.8263597270
 O     -2.3279119103      4.3854348244      3.8969766764
 O      4.7034288732      4.2695462589      4.0636730528
 O      1.3300502167      1.8965184942      3.7375457043
 O      4.7160929159     -0.0301520667      6.8388598188
 O      0.7246577289      6.6160843144      6.7841597951
 O     -2.3544046117      4.3374554283      6.8582438429
 O      4.9125043986      4.4782344761      6.9196539091
 O      1.4952391241      2.0643618627      6.6164892916
 O      2.4340513464     -0.4017315508      3.2598005561
 O     -0.9151828836      6.4964325389      3.3513962722
 O     -1.1976519492      2.0212876146      3.3078529238
 O      6.1187437241      2.0398051488      3.3747980786
 O      2.2721109065      4.0042381933      3.0279287987
 H      5.1218194287     -0.8878649463      6.7383598280
 H      1.6612267747      6.5050906278      6.9381028218
 H     -2.8531663375      3.8728914648      6.2130198000
 H      5.2746035528      4.2458140414      6.0696400859
 H      2.0865226460     -0.7904006731      2.4059897506
 H     -1.4799138575      7.0833796199      3.8213603824
 H     -1.5864320440      1.3068203354      2.7561275760
 H      7.0080354149      1.7376588354      3.5761178486
60
# ORCA AIMD Position Step 103, t=51.50 fs, E_Pot=-1525.77280534 Hartree, Unit is Angstrom
 H      3.0023008470      0.2945243297      0.8576820264
 H     -1.1522841965      6.5387704123      1.3147069693
 H     -0.9182502020      2.6268330274      1.0922528516
 H      6.0471418403      2.0710635727      1.4032257940
 H      2.3406799475      4.1454008582      0.8654831782
 H      4.9642371934     -0.1415401008      4.7806120703
 H      1.2908040437      6.4706136602      4.6953510546
 H     -2.0087688650      4.5834824135      4.7798430995
 H      4.2037659002      3.8406563689      4.7576367426
 H      1.3946244962      1.9069885521      4.7163249930
 H      3.7761047563      0.3958083943     -0.3253211014
 H     -1.4002379724      6.2262037697     -0.1557465874
 H     -0.3201821015      2.4920886142     -0.2479118827
 H      5.1482630920      2.1804559953      0.2418047804
 H      2.2575170929      3.1648931920     -0.2430818857
 H      4.0687162626     -0.3284518534      3.5618634492
 H      0.9275497593      6.6524606236      3.2805048908
 H     -1.8052776535      3.5627469867      3.6453109399
 H      5.3722113445      3.5939946731      3.7955790720
 H      1.8008178051      2.8066211569      3.4122728691
 H      0.3924072005      5.7314505236      6.8839759341
 H     -2.7192648674      5.2461334209      6.7551168880
 H      0.5643820419      1.9906771665      6.8528124667
 H      5.4477991002      0.4767498216      7.0534472902
 H      1.8677430871      1.2418247503      6.9201584348
 H      5.1413208898      5.4239373580      6.8565806516
 H      2.0431707521      0.5574987299      3.3218825203
 H      5.6167794679      1.1318497917      3.3818290036
 H      3.2848339224      4.2591900024      3.0345612872
 H     -1.5060705970      5.6109472112      3.3311566404
 H      1.8543387380      4.8599376804      3.3777762535
 H     -0.1905082393      1.8906266928      3.3374679825
 O      2.8724405086      0.2110122373     -0.0685814726
 O     -1.2448584709      6.9723931566      0.4439411656
 O     -0.9684705086      2.0373369340      0.3591571476
 O      6.0391356927      1.9112707674      0.4190033073
 O      2.2372632599      4.1346362393     -0.0862090198
 O      5.0336809328     -0.2552130243      3.8219367458
 O      1.6890387003      6.3580821744      3.8247196048
 O     -2.3255267094      4.3821406010      3.8961331365
 O      4.7036629005      4.2638880138      4.0646139876
 O      1.3310786409      1.8910622279      3.7364625811
 O      4.7127967576     -0.0305364519      6.8395172613
 O      0.7197884091      6.6159343647      6.7839284017
 O     -2.3512958489      4.3374010999      6.8596715145
 O      4.9115737533      4.4803273039      6.9224712399
 O      1.4969315511      2.0641608885      6.6149560773
 O      2.4315829012     -0.4053769934      3.2602177753
 O     -0.9109325463      6.4965523548      3.3547220413
 O     -1.1981766780      2.0213078160      3.3128191978
 O      6.1164548755      2.0414956607      3.3791672750
 O      2.2697101228      4.0046276341      3.0249086407
 H      5.1166446911     -0.8896317439      6.7467583137
 H      1.6577215665      6.4908391640      6.9511700600
 H     -2.8554816164      3.8661303457      6.2127096994
 H      5.2758458376      4.2352144661      6.0744754178
 H      2.0966272575     -0.8066230807      2.3979077529
 H     -1.4761901992      7.0965493596      3.8265054260
 H     -1.5851246674      1.2983211186      2.7531887595
 H      7.0185876796      1.7372876034      3.5755597582
60
# ORCA AIMD Position Step 104, t=52.00 fs, E_Pot=-1525.77455688 Hartree, Unit is Angstrom
 H      3.0012346722      0.3069052678      0.8476264770
 H     -1.1513260318      6.5489747881      1.2855993716
 H     -0.9171933582      2.6503665796      1.0820129865
 H      6.0233168840      2.0749353420      1.3876354096
 H      2.3230244639      4.1396326735      0.8663956555
 H      4.9578450465     -0.1444656585      4.7801137518
 H      1.2952864383      6.4627756915      4.6994844345
 H     -1.9974628830      4.5745099217      4.7801860030
 H      4.1911617689      3.8403267942      4.7499789299
 H      1.3937185556      1.9044119291      4.7157861803
 H      3.7877335631      0.3923061015     -0.3324513554
 H     -1.4104007028      6.2303950365     -0.1596447949
 H     -0.3018861219      2.4816116109     -0.2530489848
 H      5.1433728158      2.1957097962      0.2437378251
 H      2.2590966369      3.1533712509     -0.2610641787
 H      4.0754924733     -0.3296270877      3.5580006345
 H      0.9342508580      6.6568161005      3.2883592664
 H     -1.7994586783      3.5603013472      3.6490407737
 H      5.3497180161      3.5912764563      3.7952242914
 H      1.7996587758      2.7995891804      3.4248880590
 H      0.3812003391      5.7242784430      6.8891334992
 H     -2.7333750309      5.2455620375      6.7612132874
 H      0.5625700684      1.9753396187      6.8611391999
 H      5.4489574741      0.4814187733      7.0568407896
 H      1.8773052664      1.2333949613      6.9219838353
 H      5.1481836520      5.4315983643      6.8637898038
 H      2.0490366902      0.5591529132      3.3230940624
 H      5.6156666571      1.1248726637      3.3782582270
 H      3.2754348921      4.2533148678      3.0270574550
 H     -1.5125119298      5.6127901825      3.3291227743
 H      1.8631176245      4.8529489317      3.3740745606
 H     -0.1919845419      1.8777298662      3.3290599468
 O      2.8776567959      0.2149576186     -0.0716534551
 O     -1.2435608941      6.9749765538      0.4443856302
 O     -0.9649413015      2.0368058117      0.3574547910
 O      6.0347389152      1.9072744955      0.4189177273
 O      2.2336090720      4.1297210496     -0.0899505190
 O      5.0312948620     -0.2593430958      3.8222480532
 O      1.6907800113      6.3564317638      3.8229828001
 O     -2.3231771206      4.3788353080      3.8951582835
 O      4.7039812730      4.2583691163      4.0654411503
 O      1.3321576605      1.8855787937      3.7353113818
 O      4.7090638501     -0.0310706828      6.8400344012
 O      0.7148934084      6.6159740084      6.7836121943
 O     -2.3480411356      4.3375629853      6.8612147293
 O      4.9105981301      4.4824807346      6.9254163195
 O      1.4986158884      2.0641218396      6.6133048707
 O      2.4290595515     -0.4090232025      3.2604296708
 O     -0.9066945959      6.4963464828      3.3579192941
 O     -1.1987600800      2.0212736873      3.3177356839
 O      6.1141199573      2.0431501956      3.3835071891
 O      2.2675793817      4.0051338203      3.0217361505
 H      5.1119357803     -0.8945045382      6.7550572928
 H      1.6561954930      6.4765845710      6.9647850381
 H     -2.8603019662      3.8568062763      6.2098630227
 H      5.2784215744      4.2231174517      6.0767081075
 H      2.1077026810     -0.8214029205      2.3928581877
 H     -1.4742669344      7.1122315923      3.8327653664
 H     -1.5827648762      1.2915631190      2.7511217862
 H      7.0298032814      1.7373335344      3.5748362802
60
# ORCA AIMD Position Step 105, t=52.50 fs, E_Pot=-1525.77476952 Hartree, Unit is Angstrom
 H      2.9999755056      0.3197355275      0.8442254299
 H     -1.1498267883      6.5581282044      1.2603383129
 H     -0.9165414580      2.6757718316      1.0750579911
 H      6.0007780641      2.0784736262      1.3727987367
 H      2.3051053169      4.1342377484      0.8701401700
 H      4.9511976107     -0.1469384484      4.7815672737
 H      1.2991709806      6.4549757158      4.7058782633
 H     -1.9851426028      4.5657265368      4.7825335326
 H      4.1765758159      3.8385816396      4.7443324785
 H      1.3927226971      1.9018168233      4.7163985418
 H      3.8013305274      0.3887209940     -0.3411199962
 H     -1.4205008788      6.2345682280     -0.1636953692
 H     -0.2853084431      2.4694054984     -0.2569017651
 H      5.1356325583      2.2123303770      0.2439859962
 H      2.2607363551      3.1430919626     -0.2790502789
 H      4.0808073122     -0.3313938516      3.5533729200
 H      0.9394032593      6.6614387035      3.2952963161
 H     -1.7941812528      3.5566915119      3.6523431777
 H      5.3289595791      3.5856576335      3.7939700750
 H      1.7979341503      2.7916113099      3.4379102783
 H      0.3685787532      5.7148235549      6.8945155268
 H     -2.7469628541      5.2436343125      6.7679744654
 H      0.5601928166      1.9600746502      6.8696216060
 H      5.4553548210      0.4907538148      7.0620505859
 H      1.8880123410      1.2235829186      6.9242724075
 H      5.1545273273      5.4392168225      6.8717043707
 H      2.0547489116      0.5587825801      3.3241207065
 H      5.6148756504      1.1189962939      3.3755547750
 H      3.2629095487      4.2460635151      3.0206225356
 H     -1.5167276834      5.6179022434      3.3278473773
 H      1.8716098051      4.8475443785      3.3709573400
 H     -0.1940214463      1.8649076508      3.3209970445
 O      2.8828099029      0.2189292303     -0.0750241795
 O     -1.2422953370      6.9776610087      0.4446022457
 O     -0.9612466329      2.0362751601      0.3554782817
 O      6.0303938987      1.9032065447      0.4188993000
 O      2.2299281617      4.1246304336     -0.0938598088
 O      5.0289784866     -0.2634844113      3.8224816077
 O      1.6926360676      6.3547668411      3.8212060612
 O     -2.3208516738      4.3755189297      3.8940797281
 O      4.7043100825      4.2530744950      4.0661806124
 O      1.3332936956      1.8800706144      3.7341054282
 O      4.7049600418     -0.0317309057      6.8404250427
 O      0.7100067359      6.6161183718      6.7832308310
 O     -2.3447092681      4.3379207741      6.8628028289
 O      4.9096004396      4.4847244862      6.9284552933
 O      1.5002749527      2.0641572958      6.6115804974
 O      2.4264848416     -0.4126812219      3.2604218854
 O     -0.9025424880      6.4958733166      3.3610381437
 O     -1.1994027388      2.0211322696      3.3225685510
 O      6.1117994947      2.0447123181      3.3878317383
 O      2.2657145517      4.0056972711      3.0183954393
 H      5.1075941776     -0.9021183767      6.7633190907
 H      1.6557813562      6.4625022048      6.9787781417
 H     -2.8667580693      3.8457483335      6.2055599299
 H      5.2820562831      4.2099182322      6.0770028140
 H      2.1197615424     -0.8343697029      2.3912030687
 H     -1.4731606139      7.1292647437      3.8392977363
 H     -1.5792381670      1.2871531107      2.7503388997
 H      7.0403551141      1.7381901939      3.5736646130
60
# ORCA AIMD Position Step 106, t=53.00 fs, E_Pot=-1525.77329434 Hartree, Unit is Angstrom
 H      2.9986091999      0.3331008626      0.8474240622
 H     -1.1473607066      6.5644811783      1.2424054311
 H     -0.9163892307      2.7019923858      1.0700724591
 H      5.9798359693      2.0818217230      1.3603197581
 H      2.2868486890      4.1290161657      0.8759083003
 H      4.9443059167     -0.1489720985      4.7847844759
 H      1.3027325882      6.4471535993      4.7138918293
 H     -1.9720923602      4.5571450794      4.7863434924
 H      4.1601750266      3.8355822060      4.7405021238
 H      1.3915590150      1.8991003639      4.7180530843
 H      3.8159658584      0.3848829078     -0.3508928334
 H     -1.4304650161      6.2391057449     -0.1676816897
 H     -0.2707351818      2.4553331430     -0.2592207670
 H      5.1261337358      2.2299330143      0.2424536929
 H      2.2624281661      3.1348350962     -0.2966846657
 H      4.0840857245     -0.3338088900      3.5478694287
 H      0.9425252189      6.6664910292      3.3009734745
 H     -1.7895297100      3.5519887795      3.6550893742
 H      5.3110456920      3.5760129333      3.7913790178
 H      1.7956688144      2.7828135130      3.4510672067
 H      0.3550026358      5.7044870937      6.8999348390
 H     -2.7598388376      5.2399886279      6.7753834923
 H      0.5580698363      1.9450223747      6.8780007111
 H      5.4651939046      0.5033592756      7.0685162659
 H      1.8993130547      1.2137433150      6.9264987600
 H      5.1602500781      5.4459702092      6.8801483368
 H      2.0602192182      0.5562740641      3.3248057231
 H      5.6146680017      1.1145724963      3.3737848850
 H      3.2480564302      4.2376675890      3.0151889305
 H     -1.5186520051      5.6263424616      3.3273837772
 H      1.8793893351      4.8444270895      3.3686780624
 H     -0.1967114870      1.8524041049      3.3134066190
 O      2.8879523224      0.2229329288     -0.0787168219
 O     -1.2410933430      6.9805311837      0.4443584971
 O     -0.9573626758      2.0358195987      0.3532958162
 O      6.0260135323      1.8990814934      0.4188527004
 O      2.2262268719      4.1193268650     -0.0979074280
 O      5.0267684216     -0.2676319303      3.8226569975
 O      1.6946223822      6.3530822344      3.8194542246
 O     -2.3185311199      4.3721913262      3.8929405809
 O      4.7045728081      4.2480680496      4.0668777805
 O      1.3344911573      1.8745370839      3.7328672676
 O      4.7006102071     -0.0324729337      6.8407172216
 O      0.7051619920      6.6162665820      6.7828087997
 O     -2.3413733820      4.3384363169      6.8643583526
 O      4.9086097869      4.4870769112      6.9315402374
 O      1.5018925812      2.0641732047      6.6098310947
 O      2.4238707130     -0.4163590773      3.2601974799
 O     -0.8985441471      6.4952064729      3.3641303930
 O     -1.2000980710      2.0208445382      3.3272943372
 O      6.1095465944      2.0461348838      3.3921511071
 O      2.2640895701      4.0062587326      3.0148729743
 H      5.1034276511     -0.9117712924      6.7716398022
 H      1.6554954315      6.4487866520      6.9929352751
 H     -2.8738560070      3.8339218559      6.2010138301
 H      5.2863636282      4.1961381990      6.0762681873
 H      2.1327033124     -0.8453132831      2.3930001441
 H     -1.4718693307      7.1464314833      3.8452419986
 H     -1.5745697959      1.2854625398      2.7510761944
 H      7.0490995471      1.7401852694      3.5718231392
60
# ORCA AIMD Position Step 107, t=53.50 fs, E_Pot=-1525.77135889 Hartree, Unit is Angstrom
 H      2.9971520220      0.3469708691      0.8560968734
 H     -1.1435689809      6.5666238354      1.2344864028
 H     -0.9168055167      2.7278136313      1.0656518852
 H      5.9606988236      2.0851197293      1.3515897810
 H      2.2681929694      4.1237695272      0.8826545867
 H      4.9371840283     -0.1506101236      4.7893618433
 H      1.3062921021      6.4392477170      4.7227308827
 H     -1.9586661718      4.5487343686      4.7909049877
 H      4.1423733061      3.8316552740      4.7380015364
 H      1.3901476065      1.8961569997      4.7205322331
 H      3.8306325561      0.3806379761     -0.3612513179
 H     -1.4402201375      6.2443237926     -0.1713953412
 H     -0.2582663986      2.4394002179     -0.2599101676
 H      5.1161657103      2.2480214106      0.2391390812
 H      2.2641583438      3.1291364941     -0.3136449863
 H      4.0849641763     -0.3369042373      3.5414516902
 H      0.9433605705      6.6720517038      3.3052335070
 H     -1.7856136127      3.5463240090      3.6571817389
 H      5.2966346249      3.5616030674      3.7871801409
 H      1.7929207662      2.7733807802      3.4640733502
 H      0.3409659546      5.6946744959      6.9051934610
 H     -2.7718815107      5.2344353313      6.7834036015
 H      0.5569673756      1.9303320750      6.8860218792
 H      5.4763421025      0.5175502689      7.0755643990
 H      1.9106775442      1.2051315372      6.9281758266
 H      5.1652803308      5.4511783682      6.8889323243
 H      2.0653401603      0.5516306842      3.3250191757
 H      5.6152309743      1.1118507737      3.3730067268
 H      3.2319954934      4.2284214822      3.0106683347
 H     -1.5183337679      5.6379792860      3.3277635846
 H      1.8861230156      4.8441409065      3.3674263690
 H     -0.2001039974      1.8404636716      3.3064196826
 O      2.8931457740      0.2269809277     -0.0826923683
 O     -1.2399822098      6.9836548888      0.4434724692
 O     -0.9532789539      2.0355147087      0.3509908847
 O      6.0215043142      1.8949212108      0.4186899239
 O      2.2225112965      4.1137881585     -0.1020465783
 O      5.0246881193     -0.2717797405      3.8228034049
 O      1.6967374230      6.3513777241      3.8177901974
 O     -2.3161905182      4.3688514450      3.8917933750
 O      4.7047059404      4.2433786813      4.0675866411
 O      1.3357519795      1.8689738774      3.7316273320
 O      4.6961638583     -0.0332478366      6.8409452136
 O      0.7003891501      6.6163170680      6.7823721749
 O     -2.3381003085      4.3390619667      6.8658092809
 O      4.9076562569      4.4895434541      6.9346187978
 O      1.5034545888      2.0640811715      6.6081021288
 O      2.4212366533     -0.4200613626      3.2597770540
 O     -0.8947528866      6.4944248316      3.3672422497
 O     -1.2008334106      2.0203864329      3.3319007181
 O      6.1074022843      2.0473823983      3.3964711298
 O      2.2626522919      4.0067655543      3.0111600505
 H      5.0991878920     -0.9225471315      6.7801274672
 H      1.6543793513      6.4356382698      7.0070244686
 H     -2.8806313877      3.8222725836      6.1973706686
 H      5.2909082736      4.1823634228      6.0754927563
 H      2.1463287333     -0.8541950098      2.3979994441
 H     -1.4695106628      7.1626189769      3.8498378872
 H     -1.5689219006      1.2866184563      2.7533850525
 H      7.0551645223      1.7435589005      3.5691630370
60
# ORCA AIMD Position Step 108, t=54.00 fs, E_Pot=-1525.77014274 Hartree, Unit is Angstrom
 H      2.9955896193      0.3611984948      0.8683508769
 H     -1.1382918472      6.5640112730      1.2374930392
 H     -0.9178207619      2.7520493038      1.0605209480
 H      5.9434919101      2.0884533096      1.3475252853
 H      2.2491139974      4.1183132851      0.8892585999
 H      4.9298502237     -0.1519225511      4.7947405053
 H      1.3101671759      6.4312116790      4.7315625144
 H     -1.9452523875      4.5404435436      4.7954451679
 H      4.1237645172      3.8272259711      4.7361674729
 H      1.3884124923      1.8928815640      4.7235407890
 H      3.8443819092      0.3758765003     -0.3716553731
 H     -1.4497023013      6.2504254962     -0.1746669653
 H     -0.2478178730      2.4217443697     -0.2590307530
 H      5.1070096146      2.2660504894      0.2341076992
 H      2.2659090168      3.1262618752     -0.3296625101
 H      4.0833539360     -0.3406844553      3.5341765499
 H      0.9419262171      6.6780829033      3.3081276908
 H     -1.7825623131      3.5398786794      3.6585518340
 H      5.2857805659      3.5423006660      3.7813675976
 H      1.7897874929      2.7635689416      3.4766310914
 H      0.3269248451      5.6866297663      6.9101036661
 H     -2.7830404854      5.2269639591      6.7919822826
 H      0.5575221622      1.9161574978      6.8934553909
 H      5.4867683918      0.5316843023      7.0825431870
 H      1.9216590257      1.1987864150      6.9288987766
 H      5.1695865540      5.4543583785      6.8978632371
 H      2.0699812095      0.5449839109      3.3246606924
 H      5.6166633874      1.1109599171      3.3732686043
 H      3.2161425708      4.2186707358      3.0069632805
 H     -1.5159476738      5.6524768766      3.3289970386
 H      1.8916128622      4.8469798159      3.3672867016
 H     -0.2041889428      1.8293257066      3.3001706110
 O      2.8984502440      0.2310900003     -0.0868648403
 O     -1.2389760991      6.9870530325      0.4418763938
 O     -0.9489989951      2.0354260240      0.3486487037
 O      6.0167781703      1.8907541411      0.4183484582
 O      2.2187856153      4.1080084195     -0.1062220472
 O      5.0227440171     -0.2759212055      3.8229543061
 O      1.6989626476      6.3496589054      3.8162661902
 O     -2.3138015978      4.3654965387      3.8906932603
 O      4.7046724719      4.2389904125      4.0683560415
 O      1.3370750677      1.8633722220      3.7304216937
 O      4.6917649899     -0.0340143464      6.8411425799
 O      0.6957124778      6.6161785979      6.7819460433
 O     -2.3349439735      4.3397469732      6.8670969532
 O      4.9067666199      4.4921169695      6.9376425683
 O      1.5049496488      2.0638060781      6.6064323838
 O      2.4186091832     -0.4237893065      3.2591990501
 O     -0.8912019148      6.4936068735      3.3704101268
 O     -1.2015913749      2.0197491688      3.3363866557
 O      6.1053930119      2.0484324904      3.4007930570
 O      2.2613234588      4.0071777282      3.0072549918
 H      5.0946121058     -0.9334502085      6.7888795240
 H      1.6516041557      6.4232532334      7.0208167087
 H     -2.8862524690      3.8116168556      6.1955812230
 H      5.2952648725      4.1691852796      6.0756025869
 H      2.1603496159     -0.8611557078      2.4056379451
 H     -1.4653984446      7.1769198595      3.8524936425
 H     -1.5625871913      1.2905028866      2.7571310074
 H      7.0580003872      1.7484533081      3.5656131617
60
# ORCA AIMD Position Step 109, t=54.50 fs, E_Pot=-1525.76960374 Hartree, Unit is Angstrom
 H      2.9939163236      0.3755609530      0.8819692796
 H     -1.1316388596      6.5571991409      1.2501831481
 H     -0.9194271374      2.7736806565      1.0536451747
 H      5.9282880122      2.0918095853      1.3483931892
 H      2.2296273820      4.1124825101      0.8946683937
 H      4.9223240870     -0.1529957795      4.8002868796
 H      1.3146368285      6.4230181765      4.7396094147
 H     -1.9322321703      4.5322197446      4.7992275056
 H      4.1050296267      3.8227479323      4.7342770372
 H      1.3862853223      1.8891731085      4.7267366582
 H      3.8564252574      0.3705414882     -0.3815967815
 H     -1.4588700255      6.2574796011     -0.1773804465
 H     -0.2391132158      2.4026113212     -0.2567989628
 H      5.0997950009      2.2834939264      0.2274750062
 H      2.2676669167      3.1261986822     -0.3445426050
 H      4.0794436940     -0.3451265758      3.5261986037
 H      0.9385097120      6.6844272564      3.3099018048
 H     -1.7805104814      3.5328624956      3.6591563529
 H      5.2779539314      3.5186469181      3.7742221181
 H      1.7864028442      2.7537002140      3.4884431003
 H      0.3132500111      5.6813352290      6.9145038302
 H     -2.7933456912      5.2177398898      6.8010613483
 H      0.5601847793      1.9026420169      6.9001173394
 H      5.4947954582      0.5443610659      7.0889021676
 H      1.9319297558      1.1954689894      6.9283670332
 H      5.1731878452      5.4552578858      6.9067549818
 H      2.0739918854      0.5365901831      3.3236602456
 H      5.6189780824      1.1119105685      3.3746052375
 H      3.2021136905      4.2087874441      3.0039768836
 H     -1.5118145740      5.6692831752      3.3310698210
 H      1.8958223291      4.8529338297      3.3682139480
 H     -0.2088896253      1.8192141345      3.2947906169
 O      2.9039150557      0.2352783653     -0.0911259035
 O     -1.2380707388      6.9906861389      0.4396415161
 O     -0.9445407958      2.0356018092      0.3463491017
 O      6.0117596249      1.8866138091      0.4178035196
 O      2.2150514006      4.1019982487     -0.1103779299
 O      5.0209253075     -0.2800497935      3.8231421605
 O      1.7012648669      6.3479372823      3.8149186152
 O     -2.3113360927      4.3621222432      3.8896919309
 O      4.7044665542      4.2348432854      4.0692207669
 O      1.3384562969      1.8577191482      3.7292892596
 O      4.6875338480     -0.0347433514      6.8413379057
 O      0.6911488948      6.6157777506      6.7815519760
 O     -2.3319417307      4.3404410843      6.8681790171
 O      4.9059609278      4.4947790026      6.9405727064
 O      1.5063705689      2.0632908860      6.6048514100
 O      2.4160205262     -0.4275404604      3.2585189312
 O     -0.8879015071      6.4928283758      3.3736593767
 O     -1.2023512088      2.0189394663      3.3407627100
 O      6.1035296988      2.0492757076      3.4051141053
 O      2.2600010845      4.0074725230      3.0031641270
 H      5.0894603783     -0.9435338180      6.7979718200
 H      1.6465429192      6.4118062464      7.0341116511
 H     -2.8900689108      3.8025881393      6.1963454308
 H      5.2990605515      4.1571458859      6.0773619367
 H      2.1744102421     -0.8665180776      2.4150532927
 H     -1.4590689292      7.1886809635      3.8528094936
 H     -1.5559759898      1.2967603681      2.7619954671
 H      7.0573918231      1.7549158990      3.5611719025
60
# ORCA AIMD Position Step 110, t=55.00 fs, E_Pot=-1525.76899510 Hartree, Unit is Angstrom
 H      2.9921608252      0.3898049507      0.8948017355
 H     -1.1239533879      6.5476009987      1.2696776603
 H     -0.9215825508      2.7919258136      1.0442769955
 H      5.9151397577      2.0950558381      1.3537703510
 H      2.2097895988      4.1061374413      0.8979999020
 H      4.9146260153     -0.1539245100      4.8053692750
 H      1.3199172459      6.4146623843      4.7462210629
 H     -1.9199481776      4.5240225143      4.8016249684
 H      4.0868448828      3.8186440094      4.7316555348
 H      1.3837100442      1.8849389841      4.7297673015
 H      3.8661924961      0.3646305466     -0.3906383962
 H     -1.4677092916      6.2654176491     -0.1794843313
 H     -0.2316950399      2.3823332473     -0.2535765510
 H      5.0954175121      2.2998873309      0.2193896739
 H      2.2694273967      3.1286598683     -0.3581760631
 H      4.0736670683     -0.3501829705      3.5177611084
 H      0.9336166172      6.6908233590      3.3109462526
 H     -1.7795865447      3.5254956139      3.6589716286
 H      5.2722192542      3.4917329008      3.7662558106
 H      1.7829314843      2.7441533006      3.4992203416
 H      0.3002016112      5.6794699539      6.9182668694
 H     -2.8029046939      5.2070887166      6.8105826648
 H      0.5651913298      1.8899094532      6.9058820358
 H      5.4991856763      0.5545033700      7.0942238309
 H      1.9412974563      1.1956433290      6.9263915152
 H      5.1761570612      5.4538669401      6.9154361372
 H      2.0772009603      0.5268307380      3.3219779267
 H      5.6221026505      1.1145929163      3.3770362281
 H      3.1915296359      4.1991279414      3.0016253346
 H     -1.5064183282      5.6876179064      3.3339426774
 H      1.8988710955      4.8616935198      3.3700321580
 H     -0.2140559273      1.8103295296      3.2904042805
 O      2.9095735479      0.2395626524     -0.0953670295
 O     -1.2372453375      6.9944697443      0.4369462908
 O     -0.9399358756      2.0360700974      0.3441629666
 O      6.0063890528      1.8825374567      0.4170717014
 O      2.2113073144      4.0957842322     -0.1144631968
 O      5.0192060160     -0.2841594176      3.8233940646
 O      1.7036010365      6.3462291041      3.8137666681
 O     -2.3087682598      4.3587228871      3.8888331125
 O      4.7041079332      4.2308446857      4.0701978954
 O      1.3398886668      1.8519981073      3.7282687857
 O      4.6835598177     -0.0354172779      6.8415533526
 O      0.6867072803      6.6150621739      6.7812066253
 O     -2.3291135472      4.3410969746      6.8690299700
 O      4.9052506701      4.4975013624      6.9433829152
 O      1.5077150136      2.0624983996      6.6033783731
 O      2.4135072164     -0.4313094807      3.2578071635
 O     -0.8848378154      6.4921618388      3.3770041548
 O     -1.2030902726      2.0179788303      3.3450505629
 O      6.1018070097      2.0499154697      3.4094278855
 O      2.2585730736      4.0076465480      2.9989012997
 H      5.0835429144     -0.9519906595      6.8074514704
 H      1.6388065577      6.4014407329      7.0467528600
 H     -2.8916288985      3.7956133641      6.2001000294
 H      5.3020027507      4.1467008374      6.0813198548
 H      2.1881096981     -0.8707734293      2.4251178319
 H     -1.4502831098      7.1975242491      3.8505817226
 H     -1.5495985623      1.3048169489      2.7674872560
 H      7.0534665491      1.7629017060      3.5559010278
60
# ORCA AIMD Position Step 111, t=55.50 fs, E_Pot=-1525.76803300 Hartree, Unit is Angstrom
 H      2.9903909519      0.4036873042      0.9050124310
 H     -1.1156979678      6.5369674691      1.2924666078
 H     -0.9242187098      2.8062721117      1.0319564108
 H      5.9040932904      2.0979539283      1.3626630874
 H      2.1896891252      4.0991654617      0.8985962616
 H      4.9067753023     -0.1548030008      4.8094242372
 H      1.3261497601      6.4061594503      4.7509189650
 H     -1.9086794510      4.5158314973      4.8021683187
 H      4.0698081559      3.8152673261      4.7277491198
 H      1.3806463275      1.8800993878      4.7323063033
 H      3.8733600017      0.3581884490     -0.3984391141
 H     -1.4762387060      6.2740458380     -0.1809981399
 H     -0.2249482006      2.3612966195     -0.2498466234
 H      5.0945053552      2.3148591736      0.2100196432
 H      2.2712003117      3.1330959303     -0.3705481605
 H      4.0666295328     -0.3557860589      3.5091714262
 H      0.9278859903      6.6969406491      3.3117285066
 H     -1.7798995458      3.5179873701      3.6579876981
 H      5.2674820030      3.4629602524      3.7581044916
 H      1.7795571941      2.7353435506      3.5086931167
 H      0.2879165891      5.6813996073      6.9213049449
 H     -2.8118960078      5.1954678692      6.8204960299
 H      0.5725526910      1.8780541532      6.9106912726
 H      5.4991315800      0.5613628448      7.0982245191
 H      1.9497129657      1.1994776289      6.9228942517
 H      5.1786236548      5.4504197853      6.9237564393
 H      2.0794211748      0.5161957435      3.3196010651
 H      5.6258851573      1.1187779137      3.3805647058
 H      3.1857351025      4.1899784085      2.9998465134
 H     -1.5004159406      5.7064740064      3.3375513769
 H      1.9010053967      4.8727069528      3.3724576743
 H     -0.2194730111      1.8028412093      3.2871238865
 O      2.9154409966      0.2439558046     -0.0994935619
 O     -1.2364694897      6.9983063281      0.4340134434
 O     -0.9352273221      2.0368386935      0.3421507087
 O      6.0006239834      1.8785631750      0.4162043472
 O      2.2075492911      4.0894080876     -0.1184349404
 O      5.0175495752     -0.2882447860      3.8237290319
 O      1.7059243212      6.3445534585      3.8128136855
 O     -2.3060770777      4.3552922958      3.8881496843
 O      4.7036310174      4.2268869683      4.0712887568
 O      1.3413629867      1.8461903517      3.7273958014
 O      4.6799010376     -0.0360268205      6.8418046041
 O      0.6823882999      6.6140018583      6.7809206230
 O     -2.3264624180      4.3416723844      6.8696402026
 O      4.9046376701      4.5002476318      6.9460607095
 O      1.5089856910      2.0614118027      6.6020215151
 O      2.4111076877     -0.4350897875      3.2571441879
 O     -0.8819725758      6.4916757215      3.3804477703
 O     -1.2037855255      2.0169014345      3.3492815372
 O      6.1002027104      2.0503677947      3.4137250653
 O      2.2569366913      4.0077152166      2.9944860137
 H      5.0767358700     -0.9582102979      6.8173377975
 H      1.6282587224      6.3922592410      7.0586418134
 H     -2.8906802409      3.7909070283      6.2070271410
 H      5.3038952325      4.1381925449      6.0877856472
 H      2.2010373077     -0.8745415202      2.4345222918
 H     -1.4390212992      7.2033582480      3.8457987245
 H     -1.5440352093      1.3139234003      2.7729718971
 H      7.0466989673      1.7722774213      3.5499163998
60
# ORCA AIMD Position Step 112, t=56.00 fs, E_Pot=-1525.76720895 Hartree, Unit is Angstrom
 H      2.9887059336      0.4170002704      0.9111954747
 H     -1.1073407523      6.5269440137      1.3152523470
 H     -0.9272487121      2.8164897456      1.0165005338
 H      5.8951848805      2.1002025575      1.3737273855
 H      2.1694368365      4.0914828843      0.8960543144
 H      4.8987897912     -0.1557186589      4.8120031241
 H      1.3333974748      6.3975411038      4.7534194116
 H     -1.8986248002      4.5076510796      4.8005746886
 H      4.0543891457      3.8128798926      4.7221675558
 H      1.3770714507      1.8745905645      4.7340756143
 H      3.8778613060      0.3512987100     -0.4047674424
 H     -1.4845053898      6.2830802018     -0.1820013177
 H     -0.2181500776      2.3399051107     -0.2461691316
 H      5.0974116298      2.3281485902      0.1995376951
 H      2.2730135481      3.1387253669     -0.3817390598
 H      4.0590216729     -0.3618543991      3.5007690791
 H      0.9219972676      6.7024218350      3.3127231168
 H     -1.7815287769      3.5105210175      3.6562028064
 H      5.2627070184      3.4337926463      3.7504163976
 H      1.7764612568      2.7276793357      3.5166247399
 H      0.2764014418      5.6871775123      6.9235722997
 H     -2.8205527760      5.1834258979      6.8307642940
 H      0.5820508129      1.8671315099      6.9145608259
 H      5.4942198157      0.5645017543      7.1007459602
 H      1.9572763795      1.2068452341      6.9179075452
 H      5.1807697467      5.4453749249      6.9315917980
 H      2.0804527761      0.5052656017      3.3165399876
 H      5.6301058548      1.1241263461      3.3851772020
 H      3.1854942286      4.1815042578      2.9986033538
 H     -1.4946176842      5.7246576580      3.3418101756
 H      1.9025500983      4.8852731195      3.3751396556
 H     -0.2248633626      1.7968790077      3.2850440745
 O      2.9215144307      0.2484659911     -0.1034311576
 O     -1.2357105943      7.0021108158      0.4310562302
 O     -0.9304661478      2.0378966534      0.3403600654
 O      5.9944398439      1.8747261252      0.4152746522
 O      2.2037708876      4.0829246360     -0.1222601566
 O      5.0159141943     -0.2923016316      3.8241569488
 O      1.7081901384      6.3429298745      3.8120500137
 O     -2.3032478395      4.3518245327      3.8876619995
 O      4.7030741895      4.2228644853      4.0724829582
 O      1.3428690162      1.8402774152      3.7267002050
 O      4.6765860428     -0.0365676522      6.8421013024
 O      0.6781845867      6.6125895982      6.7806978617
 O     -2.3239753903      4.3421329425      6.8700152120
 O      4.9041139284      4.5029754006      6.9486072856
 O      1.5101902053      2.0600351917      6.6007779043
 O      2.4088591559     -0.4388773733      3.2566115147
 O     -0.8792446215      6.4914313015      3.3839828490
 O     -1.2044160484      2.0157500704      3.3534936696
 O      6.0986775894      2.0506604473      3.4179941035
 O      2.2550207564      4.0077100768      2.9899408066
 H      5.0689912814     -0.9618128445      6.8276250779
 H      1.6150196224      6.3843156563      7.0697479255
 H     -2.8871716100      3.7884666814      6.2170628199
 H      5.3046470768      4.1318339429      6.0968282694
 H      2.2128175956     -0.8784909215      2.4419226659
 H     -1.4254777970      7.2063887145      3.8386368356
 H     -1.5398914758      1.3232273858      2.7777246789
 H      7.0378992095      1.7828285413      3.5433770142
60
# ORCA AIMD Position Step 113, t=56.50 fs, E_Pot=-1525.76726511 Hartree, Unit is Angstrom
 H      2.9872237680      0.4295863814      0.9123974415
 H     -1.0992879322      6.5188413379      1.3353743834
 H     -0.9305761221      2.8226474076      0.9979920702
 H      5.8884238199      2.1014884329      1.3855038617
 H      2.1491516875      4.0830336346      0.8902363590
 H      4.8906839439     -0.1567461833      4.8128040628
 H      1.3416460580      6.3888499384      4.7536454674
 H     -1.8898908397      4.4995109995      4.7967614194
 H      4.0408972257      3.8116440306      4.7147025235
 H      1.3729814517      1.8683682749      4.7348697637
 H      3.8798850660      0.3440707353     -0.4095083069
 H     -1.4925829133      6.2921786733     -0.1826254566
 H     -0.2105508436      2.3185313928     -0.2431113783
 H      5.1042187562      2.3396209876      0.1881058828
 H      2.2749165267      3.1445842365     -0.3919184129
 H      4.0515359105     -0.3682982892      3.4928931784
 H      0.9165880808      6.7069222088      3.3143565689
 H     -1.7845161874      3.5032393676      3.6536189411
 H      5.2570459738      3.4055770021      3.7437734564
 H      1.7738014822      2.7215222115      3.5228227833
 H      0.2655259579      5.6965500844      6.9250675216
 H     -2.8291368419      5.1715456066      6.8413693403
 H      0.5932499263      1.8571502435      6.9175835480
 H      5.4843982228      0.5637747858      7.1017473036
 H      1.9642423543      1.2173319295      6.9115710319
 H      5.1828243847      5.4393848402      6.9388483035
 H      2.0800962726      0.4946650970      3.3128209180
 H      5.6344911051      1.1301982396      3.3908445929
 H      3.1907906655      4.1737268950      2.9978777203
 H     -1.4899292055      5.7408756301      3.3466191834
 H      1.9038608897      4.8986326743      3.3777016950
 H     -0.2299127172      1.7925279918      3.2842356406
 O      2.9277735637      0.2530965059     -0.1071267332
 O     -1.2349382620      7.0058228310      0.4282511767
 O     -0.9257056879      2.0392163127      0.3388224708
 O      5.9878307426      1.8710543118      0.4143638513
 O      2.1999639176      4.0763987354     -0.1259170062
 O      5.0142580337     -0.2963268647      3.8246785244
 O      1.7103612279      6.3413764133      3.8114557173
 O     -2.3002732261      4.3483147169      3.8873771940
 O      4.7024737477      4.2186854516      4.0737620180
 O      1.3443968410      1.8342437558      3.7262040165
 O      4.6736157854     -0.0370384105      6.8424471201
 O      0.6740814881      6.6108410928      6.7805347810
 O     -2.3216250055      4.3424561189      6.8701748665
 O      4.9036616807      4.5056389073      6.9510373549
 O      1.5113400394      2.0583936083      6.5996333772
 O      2.4067937198     -0.4426754418      3.2562790354
 O     -0.8765735145      6.4914763933      3.3875912323
 O     -1.2049656315      2.0145694723      3.3577265413
 O      6.0971766092      2.0508316458      3.4222222610
 O      2.2528011771      4.0076742542      2.9852891251
 H      5.0603380385     -0.9626627460      6.8382897043
 H      1.5994601378      6.3776084235      7.0801183698
 H     -2.8812563243      3.7880669551      6.2299025569
 H      5.3042790936      4.1276958524      6.1082767998
 H      2.2231615308     -0.8832223998      2.4461489984
 H     -1.4100595838      7.2071317925      3.8294566780
 H     -1.5377340775      1.3318872477      2.7810191153
 H      7.0281821468      1.7942721655      3.5364694746
60
# ORCA AIMD Position Step 114, t=57.00 fs, E_Pot=-1525.76856744 Hartree, Unit is Angstrom
 H      2.9860680686      0.4413458922      0.9081121389
 H     -1.0918583940      6.5135909765      1.3509055615
 H     -0.9341026735      2.8251337702      0.9767777061
 H      5.8837778506      2.1015328525      1.3966140632
 H      2.1289482713      4.0737880277      0.8812736778
 H      4.8824672402     -0.1579428918      4.8116900557
 H      1.3508067972      6.3801347204      4.7517294325
 H     -1.8824844226      4.4914657119      4.7908538045
 H      4.0294657820      3.8116199933      4.7053297452
 H      1.3683904466      1.8614094370      4.7345723799
 H      3.8798643770      0.3366295086     -0.4126622337
 H     -1.5005578934      6.3009898840     -0.1830211403
 H     -0.2014846959      2.2974728202     -0.2411581065
 H      5.1147416615      2.3492823231      0.1758595066
 H      2.2769778375      3.1496166288     -0.4013224195
 H      4.0447948796     -0.3750261208      3.4858513122
 H      0.9121882020      6.7101451294      3.3169637196
 H     -1.7888592756      3.4962322049      3.6502371891
 H      5.2498908843      3.3794468176      3.7386468941
 H      1.7716879976      2.7171361824      3.5271496936
 H      0.2550171207      5.7089621161      6.9258363760
 H     -2.8379008829      5.1603739488      6.8523137383
 H      0.6055212292      1.8480670141      6.9199273377
 H      5.4699697585      0.5593296402      7.1013059185
 H      1.9710231877      1.2302452302      6.9041280839
 H      5.1850480225      5.4332331764      6.9454638084
 H      2.0781679906      0.4850071888      3.3084776588
 H      5.6387372313      1.1364777143      3.3975249228
 H      3.2008156482      4.1665407583      2.9976595629
 H     -1.4872273897      5.7539030756      3.3518789950
 H      1.9052802358      4.9120471642      3.3797805994
 H     -0.2342939705      1.7898255302      3.2847401420
 O      2.9341822664      0.2578459392     -0.1105481439
 O     -1.2341267810      7.0094062492      0.4257299989
 O     -0.9209941378      2.0407546719      0.3375474594
 O      5.9808102193      1.8675647388      0.4135499428
 O      2.1961193583      4.0698996347     -0.1293965970
 O      5.0125436815     -0.3003186558      3.8252859987
 O      1.7124115816      6.3399078827      3.8110031132
 O     -2.2971542461      4.3447598559      3.8872888969
 O      4.7018614710      4.2142782456      4.0751018853
 O      1.3459384816      1.8280799598      3.7259196745
 O      4.6709640996     -0.0374403963      6.8428392571
 O      0.6700585489      6.6087949523      6.7804198848
 O     -2.3193711330      4.3426362190      6.8701531611
 O      4.9032541354      4.5081935015      6.9533788380
 O      1.5124488202      2.0565327882      6.5985628852
 O      2.4049347019     -0.4464992245      3.2561911572
 O     -0.8738676189      6.4918343858      3.3912436467
 O     -1.2054262365      2.0133976172      3.3620141775
 O      6.0956329684      2.0509269747      3.4263968081
 O      2.2503044532      4.0076562901      2.9805537757
 H      5.0508806624     -0.9608740735      6.8492970779
 H      1.5821842676      6.3720757319      7.0898832772
 H     -2.8733011782      3.7892506741      6.2450023932
 H      5.3029288841      4.1256984082      6.1217248162
 H      2.2319088472     -0.8891356748      2.4464336944
 H     -1.3933809676      7.2064209093      3.8187951239
 H     -1.5380116608      1.3392144556      2.7822450528
 H      7.0188811897      1.8062827494      3.5293870818
60
# ORCA AIMD Position Step 115, t=57.50 fs, E_Pot=-1525.77082159 Hartree, Unit is Angstrom
 H      2.9853586043      0.4522442618      0.8982687233
 H     -1.0852863386      6.5117882809      1.3605633170
 H     -0.9377380522      2.8246875057      0.9534673920
 H      5.8811622785      2.1001200672      1.4058791290
 H      2.1089219737      4.0637390475      0.8695598739
 H      4.8741427054     -0.1593454541      4.8086959398
 H      1.3607232821      6.3714450843      4.7480065301
 H     -1.8763081533      4.4835922652      4.7831840484
 H      4.0200427134      3.8127694799      4.6942048486
 H      1.3633297053      1.8537132172      4.7331631851
 H      3.8784591091      0.3291027756     -0.4143424229
 H     -1.5085185051      6.3091948111     -0.1833345882
 H     -0.1904886040      2.2769167634     -0.2406174238
 H      5.1285367385      2.3572931303      0.1628894149
 H      2.2792793245      3.1527994397     -0.4102183325
 H      4.0393102114     -0.3819480421      3.4798991405
 H      0.9091809396      6.7118628093      3.3207690630
 H     -1.7945104204      3.4895334607      3.6460566063
 H      5.2408639332      3.3562960545      3.7353871184
 H      1.7701657998      2.7146492393      3.5295303009
 H      0.2444581075      5.7235727010      6.9259724439
 H     -2.8470472190      5.1503525022      6.8636183225
 H      0.6180850682      1.8397843580      6.9218273985
 H      5.4516133283      0.5516284667      7.0996261021
 H      1.9781817303      1.2446426722      6.8959151260
 H      5.1877094065      5.4277505280      6.9514082429
 H      2.0745209297      0.4768217233      3.3035447537
 H      5.6425356753      1.1424015426      3.4051669679
 H      3.2141709572      4.1597630242      2.9979341726
 H     -1.4872005653      5.7627836176      3.3575065429
 H      1.9071074898      4.9248514045      3.3810520369
 H     -0.2376971502      1.7887608547      3.2865659330
 O      2.9406902687      0.2627085104     -0.1136835475
 O     -1.2332556957      7.0128437284      0.4235836835
 O     -0.9163665072      2.0424536563      0.3365167988
 O      5.9734113627      1.8642607366      0.4129013771
 O      2.1922286118      4.0634933189     -0.1327049984
 O      5.0107407474     -0.3042765135      3.8259638901
 O      1.7143283428      6.3385349103      3.8106583390
 O     -2.2939005687      4.3411590999      3.8873774401
 O      4.7012657138      4.2095928363      4.0764737871
 O      1.3474889740      1.8217850787      3.7258491658
 O      4.6685767324     -0.0377790713      6.8432673880
 O      0.6660915929      6.6065117895      6.7803336118
 O     -2.3171632106      4.3426890522      6.8699980304
 O      4.9028568957      4.5106010340      6.9556722636
 O      1.5135301194      2.0545175602      6.5975315976
 O      2.4032942337     -0.4503778701      3.2563567400
 O     -0.8710354233      6.4924931727      3.3949004984
 O     -1.2058008369      2.0122575663      3.3663779874
 O      6.0939759330      2.0509952509      3.4305064953
 O      2.2475969070      4.0077038725      2.9757562282
 H      5.0407942931     -0.9568082974      6.8606093357
 H      1.5639977959      6.3675941351      7.0992571296
 H     -2.8638921633      3.7913245761      6.2615828250
 H      5.3008520362      4.1256090357      6.1365392994
 H      2.2390458916     -0.8963283257      2.4425792562
 H     -1.3762406823      7.2053829478      3.8073376905
 H     -1.5409802754      1.3448054403      2.7810250109
 H      7.0114012877      1.8185313165      3.5223041602
60
# ORCA AIMD Position Step 116, t=58.00 fs, E_Pot=-1525.77320937 Hartree, Unit is Angstrom
 H      2.9852032661      0.4623216732      0.8832407384
 H     -1.0797305031      6.5137527699      1.3635982234
 H     -0.9414088615      2.8224183378      0.9289256986
 H      5.8804377158      2.0971136951      1.4123846755
 H      2.0891361932      4.0528970601      0.8557393140
 H      4.8657053294     -0.1609673605      4.8040277235
 H      1.3711797974      6.3628270916      4.7430011884
 H     -1.8711607000      4.4759862860      4.7742827306
 H      4.0123894441      3.8149613613      4.6816519697
 H      1.3578457054      1.8453007910      4.7307244208
 H      3.8765168032      0.3216095609     -0.4147621226
 H     -1.5165384341      6.3165466541     -0.1836762639
 H     -0.1773993831      2.2569328783     -0.2415493522
 H      5.1449148704      2.3639800206      0.1492260484
 H      2.2819022260      3.1532949421     -0.4188526691
 H      4.0354554383     -0.3889799796      3.4752244632
 H      0.9077773375      6.7119320368      3.3258757852
 H     -1.8013759251      3.4831190441      3.6410737770
 H      5.2297894428      3.3367834317      3.7342256298
 H      1.7692067793      2.7140323254      3.5299544906
 H      0.2332998419      5.7392952633      6.9256149098
 H     -2.8566874777      5.1417553627      6.8753137658
 H      0.6300819960      1.8321554368      6.9235677081
 H      5.4304227205      0.5414831638      7.0970550372
 H      1.9864016730      1.2593961782      6.8873385150
 H      5.1910538070      5.4237035528      6.9566800432
 H      2.0690687291      0.4704813795      3.2980528687
 H      5.6456049982      1.1474012294      3.4137145201
 H      3.2291701670      4.1531915654      2.9986735305
 H     -1.4901851175      5.7670258167      3.3634506832
 H      1.9095794185      4.9364846329      3.3812474193
 H     -0.2398608999      1.7892789658      3.2896862694
 O      2.9472361104      0.2676741927     -0.1165427140
 O     -1.2323102668      7.0161302990      0.4218675360
 O     -0.9118379915      2.0442392229      0.3356805242
 O      5.9656861492      1.8611301856      0.4124740324
 O      2.1882851668      4.0572331933     -0.1358658802
 O      5.0088276624     -0.3082012340      3.8266899548
 O      1.7161128580      6.3372632411      3.8103828917
 O     -2.2905306529      4.3375140804      3.8876104993
 O      4.7007131388      4.2046001513      4.0778448778
 O      1.3490469932      1.8153680084      3.7259835687
 O      4.6663694561     -0.0380671771      6.8437121032
 O      0.6621558443      6.6040714155      6.7802490442
 O     -2.3149435144      4.3426548351      6.8697700674
 O      4.9024302877      4.5128363670      6.9579697299
 O      1.5145948580      2.0524275158      6.5964974237
 O      2.4018726167     -0.4543514972      3.2567468853
 O     -0.8679993427      6.4933976468      3.3985145268
 O     -1.2061048862      2.0111519126      3.3708213654
 O      6.0921426506      2.0510827413      3.4345429789
 O      2.2447669994      4.0078583575      2.9709162365
 H      5.0303159427     -0.9510601833      6.8721930329
 H      1.5458479655      6.3639831982      7.1085290091
 H     -2.8538221262      3.7933759237      6.2786556191
 H      5.2984165149      4.1270499470      6.1518798213
 H      2.2446912417     -0.9045673752      2.4349987360
 H     -1.3595644505      7.2053606403      3.7958611401
 H     -1.5466491479      1.3486276399      2.7773014168
 H      7.0070019432      1.8307356725      3.5153503234
60
# ORCA AIMD Position Step 117, t=58.50 fs, E_Pot=-1525.77489033 Hartree, Unit is Angstrom
 H      2.9856917697      0.4717080527      0.8638745474
 H     -1.0752811178      6.5195743500      1.3597090520
 H     -0.9450678791      2.8197883462      0.9042269745
 H      5.8814128886      2.0924634828      1.4155103858
 H      2.0696098919      4.0412825197      0.8406820916
 H      4.8571408314     -0.1627976892      4.7980516835
 H      1.3819153330      6.3543185127      4.7373969772
 H     -1.8667457407      4.4687546993      4.7648500448
 H      4.0060873618      3.8179827620      4.6681443064
 H      1.3519973587      1.8362139541      4.7274407944
 H      3.8750055241      0.3142480097     -0.4142109433
 H     -1.5246620022      6.3229036547     -0.1840941714
 H     -0.1623961008      2.2374923968     -0.2437399290
 H      5.1629767941      2.3698372812      0.1348280893
 H      2.2849094503      3.1505960708     -0.4273962858
 H      4.0334551034     -0.3960471992      3.4719376001
 H      0.9080021772      6.7103025444      3.3322643567
 H     -1.8093218627      3.4769142298      3.6352853142
 H      5.2166625963      3.3213428525      3.7352813282
 H      1.7687144822      2.7151051846      3.5284743794
 H      0.2208967866      5.7548830368      6.9249392248
 H     -2.8668151742      5.1346498327      6.8874284069
 H      0.6406711614      1.8249960678      6.9254516304
 H      5.4079352160      0.5300828505      7.0940965652
 H      1.9964228533      1.2733096911      6.8788324473
 H      5.1952663377      5.4216737071      6.9613001529
 H      2.0618081106      0.4661390511      3.2920289220
 H      5.6477264475      1.1509581515      3.4231103943
 H      3.2441199938      4.1466482936      2.9998307610
 H     -1.4960718657      5.7667081292      3.3696992363
 H      1.9128627082      4.9464992732      3.3801599517
 H     -0.2406031444      1.7912882664      3.2940401701
 O      2.9537517856      0.2727285553     -0.1191602749
 O     -1.2312819869      7.0192683570      0.4206048341
 O     -0.9074007476      2.0460212869      0.3349581514
 O      5.9577030327      1.8581449738      0.4123101362
 O      2.1842864686      4.0511513357     -0.1389223920
 O      5.0067924554     -0.3120948343      3.8274364402
 O      1.7177806078      6.3360935529      3.8101356499
 O     -2.2870708616      4.3338289262      3.8879449160
 O      4.7002303239      4.1992905783      4.0791792290
 O      1.3506147409      1.8088472715      3.7263033549
 O      4.6642272230     -0.0383286270      6.8441434317
 O      0.6582296844      6.6015665933      6.7801339078
 O     -2.3126521944      4.3425969200      6.8695385476
 O      4.9019329473      4.5148933834      6.9603320594
 O      1.5156491987      2.0503488714      6.5954153930
 O      2.4006593694     -0.4584635513      3.2573016358
 O     -0.8647085297      6.4944533470      3.4020367700
 O     -1.2063652315      2.0100621778      3.3753282713
 O      6.0900919041      2.0512267264      3.4385018408
 O      2.2419080727      4.0081515081      2.9660517158
 H      5.0197293041     -0.9444236815      6.8840274727
 H      1.5287287635      6.3610187162      7.1180390477
 H     -2.8440376004      3.7943324282      6.2950970236
 H      5.2960816304      4.1295243022      6.1667482006
 H      2.2490558704     -0.9133474037      2.4246101862
 H     -1.3442939743      7.2077486813      3.7851313733
 H     -1.5547680202      1.3510221767      2.7713573053
 H      7.0065448094      1.8427106052      3.5085912789
60
# ORCA AIMD Position Step 118, t=59.00 fs, E_Pot=-1525.77564071 Hartree, Unit is Angstrom
 H      2.9868915672      0.4806403003      0.8415214320
 H     -1.0719605028      6.5291324397      1.3490091639
 H     -0.9486971646      2.8185110031      0.8805508893
 H      5.8838508443      2.0862078539      1.4149421921
 H      2.0503110895      4.0289176704      0.8254268003
 H      4.8484257800     -0.1648015846      4.7912735416
 H      1.3926442671      6.3459453253      4.7319846106
 H     -1.8626923389      4.4620052985      4.7557054419
 H      4.0005594826      3.8215577083      4.6542738920
 H      1.3458531185      1.8265127472      4.7235919273
 H      3.8749107699      0.3070861001     -0.4130168299
 H     -1.5328935410      6.3282450318     -0.1845604587
 H     -0.1459670972      2.2185129201     -0.2467362633
 H      5.1816816591      2.3755053113      0.1195834352
 H      2.2883272922      3.1446214515     -0.4359009841
 H      4.0333813008     -0.4030871111      3.4700659362
 H      0.9096898027      6.7070199366      3.3397975155
 H     -1.8181795331      3.4708037742      3.6286924763
 H      5.2016240430      3.3101902670      3.7385662376
 H      1.7685379601      2.7175606419      3.5251986852
 H      0.2065801838      5.7690743821      6.9241375102
 H     -2.8772999653      5.1288924723      6.8999732931
 H      0.6491489857      1.8181056199      6.9277621423
 H      5.3860982285      0.5189702439      7.0914050925
 H      2.0089320505      1.2852932648      6.8707972180
 H      5.2004397061      5.4219568910      6.9653033354
 H      2.0528329832      0.4636975715      3.2855017217
 H      5.6487761260      1.1526611195      3.4332984042
 H      3.2575191542      4.1400017110      3.0013386851
 H     -1.5043255798      5.7624459168      3.3762743838
 H      1.9170516147      4.9545650787      3.3776474834
 H     -0.2398421845      1.7946700261      3.2995360615
 O      2.9601695282      0.2778522991     -0.1216001416
 O     -1.2301692297      7.0222654837      0.4197880538
 O     -0.9030257767      2.0476972331      0.3342474373
 O      5.9495422168      1.8552621690      0.4124374596
 O      2.1802354506      4.0452529594     -0.1419362879
 O      5.0046330355     -0.3159603867      3.8281717405
 O      1.7193601910      6.3350214070      3.8098758482
 O     -2.2835538951      4.3301102626      3.8883297193
 O      4.6998440715      4.1936722169      4.0804396172
 O      1.3521971974      1.8022495337      3.7267793917
 O      4.6620076130     -0.0386010254      6.8445207126
 O      0.6542981679      6.5990923742      6.7799543620
 O     -2.3102346876      4.3425942104      6.8693737535
 O      4.9013264798      4.5167880944      6.9628236159
 O      1.5166939696      2.0483622047      6.5942439153
 O      2.3996354046     -0.4627514128      3.2579425879
 O     -0.8611476174      6.4955441492      3.4054254219
 O     -1.2066166613      2.0089535474      3.3798664484
 O      6.0878149724      2.0514502616      3.4423826882
 O      2.2391059306      4.0086040598      2.9611784738
 H      5.0093429983     -0.9378284597      6.8961112393
 H      1.5135525012      6.3584559907      7.1281365351
 H     -2.8355258118      3.7930870108      6.3097833324
 H      5.2943550655      4.1324679158      6.1800782370
 H      2.2523933043     -0.9220085020      2.4126319297
 H     -1.3312280401      7.2137446062      3.7757674722
 H     -1.5648613479      1.3526196437      2.7637614461
 H      7.0102900422      1.8543955086      3.5020264782
60
# ORCA AIMD Position Step 119, t=59.50 fs, E_Pot=-1525.77616047 Hartree, Unit is Angstrom
 H      2.9888461770      0.4894759301      0.8180390195
 H     -1.0697143006      6.5420866663      1.3320481610
 H     -0.9523007507      2.8203254495      0.8589985732
 H      5.8874775625      2.0784752559      1.4106821563
 H      2.0311595508      4.0158190904      0.8110823120
 H      4.8395301357     -0.1669240633      4.7843008895
 H      1.4030853052      6.3377198741      4.7275814959
 H     -1.8585919328      4.4558318186      4.7477047929
 H      3.9951165786      3.8253781501      4.6407027728
 H      1.3394879220      1.8162721954      4.7195343327
 H      3.8771024496      0.3001573691     -0.4114948523
 H     -1.5411929155      6.3326707612     -0.1849713911
 H     -0.1288160634      2.1999089812     -0.2499277374
 H      5.1999624072      2.3817126574      0.1033316943
 H      2.2921334565      3.1357247901     -0.4442836397
 H      4.0351570390     -0.4100519328      3.4695523674
 H      0.9124898291      6.7022230192      3.3482314055
 H     -1.8277550166      3.4646493810      3.6213083860
 H      5.1849434624      3.3033194977      3.7439876971
 H      1.7684910450      2.7210015506      3.5202851075
 H      0.1897700228      5.7807909840      6.9233887935
 H     -2.8879055844      5.1241596557      6.9129295873
 H      0.6550655963      1.8112932708      6.9307187405
 H      5.3670984662      0.5099056164      7.0897329077
 H      2.0244218709      1.2945638128      6.8635288452
 H      5.2065549958      5.4245105343      6.9687293261
 H      2.0423358811      0.4628204897      3.2785114277
 H      5.6487478850      1.1522572994      3.4442228250
 H      3.2681588411      4.1331707616      3.0031101472
 H     -1.5141081756      5.7552372564      3.3832184286
 H      1.9221699996      4.9604692178      3.3736324863
 H     -0.2376074505      1.7992884548      3.3060575081
 O      2.9664303421      0.2830207057     -0.1239588386
 O     -1.2289780940      7.0251351242      0.4193774297
 O     -0.8986692770      2.0491629452      0.3334410490
 O      5.9412878214      1.8524275698      0.4128672513
 O      2.1761410876      4.0395162163     -0.1449826744
 O      5.0023569639     -0.3198016171      3.8288629144
 O      1.7208912241      6.3340374243      3.8095674671
 O     -2.2800158987      4.3263670949      3.8887110555
 O      4.6995796431      4.1877690519      4.0815907735
 O      1.3538010209      1.7956072787      3.7273747519
 O      4.6595533957     -0.0389333595      6.8447955898
 O      0.6503551129      6.5967316191      6.7796803294
 O     -2.3076514703      4.3427271855      6.8693355692
 O      4.9005809301      4.5185570136      6.9655041338
 O      1.5177262500      2.0465281462      6.5929518059
 O      2.3987754993     -0.4672388765      3.2585863491
 O     -0.8573397298      6.4965596863      3.4086552268
 O     -1.2068969005      2.0077827199      3.3843938199
 O      6.0853389852      2.0517595133      3.4461882639
 O      2.2364323110      4.0092257882      2.9563098714
 H      4.9994613648     -0.9322405376      6.9084657846
 H      1.5010049189      6.3560607281      7.1391236790
 H     -2.8291410017      3.7886892650      6.3217837137
 H      5.2937240335      4.1353289181      6.1908730240
 H      2.2549570314     -0.9298658352      2.4003600651
 H     -1.3208523842      7.2240662161      3.7681067866
 H     -1.5762970318      1.3542044220      2.7552607126
 H      7.0178205300      1.8658467737      3.4956050080
60
# ORCA AIMD Position Step 120, t=60.00 fs, E_Pot=-1525.77760566 Hartree, Unit is Angstrom
 H      2.9915765969      0.4986887196      0.7956992839
 H     -1.0683925308      6.5578398999      1.3098874441
 H     -0.9558810778      2.8266535036      0.8403551955
 H      5.8919930343      2.0694854308      1.4030610520
 H      2.0120432847      4.0019940369      0.7986860091
 H      4.8304228627     -0.1690973960      4.7777881660
 H      1.4129955841      6.3296417936      4.7249276090
 H     -1.8540511838      4.4502956941      4.7416298477
 H      3.9890329192      3.8291473925      4.6280944926
 H      1.3329804980      1.8055786480      4.7156725874
 H      3.8821933565      0.2934645277     -0.4098903459
 H     -1.5494790220      6.3363836612     -0.1851620703
 H     -0.1117377977      2.1816326087     -0.2526478501
 H      5.2168838161      2.3891742199      0.0859156375
 H      2.2962557909      3.1246145039     -0.4523434007
 H      4.0385623526     -0.4169108542      3.4702569313
 H      0.9158845689      6.6961342939      3.3572339946
 H     -1.8378398053      3.4583101702      3.6131666490
 H      5.1670124064      3.3004833083      3.7513462167
 H      1.7683728658      2.7249825863      3.5139315803
 H      0.1701086388      5.7893464300      6.9228250233
 H     -2.8983265910      5.1200043135      6.9262420241
 H      0.6583092938      1.8044040158      6.9344412895
 H      5.3529963375      0.5045694367      7.0898079607
 H      2.0430543736      1.3008113322      6.8571622656
 H      5.2134824248      5.4289665533      6.9716160831
 H      2.0305958450      0.4629807395      3.2711195224
 H      5.6477610586      1.1496849702      3.4558251864
 H      3.2751516979      4.1261178610      3.0050394422
 H     -1.5244472790      5.7462576525      3.3905760733
 H      1.9281755477      4.9641150751      3.3681005950
 H     -0.2340385716      1.8049995689      3.3134697399
 O      2.9724928574      0.2882037105     -0.1263632998
 O     -1.2277233810      7.0279001479      0.4192970375
 O     -0.8942819274      2.0503318661      0.3324479147
 O      5.9330172258      1.8495820326      0.4135901205
 O      2.1720174289      4.0338974423     -0.1481398823
 O      4.9999808855     -0.3236222709      3.8294791567
 O      1.7224212187      6.3331277567      3.8091846720
 O     -2.2764925236      4.3226106895      3.8890387703
 O      4.6994565692      4.1816193323      4.0826041464
 O      1.3554333356      1.7889561903      3.7280472880
 O      4.6567177372     -0.0393756044      6.8449197218
 O      0.6464027580      6.5945398004      6.7792913058
 O     -2.3048880286      4.3430604846      6.8694610848
 O      4.8996801633      4.5202502996      6.9684185457
 O      1.5187426675      2.0448752493      6.5915240439
 O      2.3980506983     -0.4719326284      3.2591552477
 O     -0.8533431192      6.4974214263      3.4117234220
 O     -1.2072414891      2.0065061411      3.3888658171
 O      6.0827208573      2.0521442756      3.4499229631
 O      2.2339426988      4.0100163005      2.9514564526
 H      4.9903493226     -0.9285297826      6.9211336835
 H      1.4914174262      6.3536408988      7.1511960925
 H     -2.8254087332      3.7805652551      6.3305631065
 H      5.2945680462      4.1376644651      6.1983721758
 H      2.2569726635     -0.9363139493      2.3889881451
 H     -1.3132263316      7.2387420633      3.7621281318
 H     -1.5883685901      1.3565735297      2.7466566257
 H      7.0281304503      1.8771969740      3.4892534791
60
# ORCA AIMD Position Step 121, t=60.50 fs, E_Pot=-1525.78047355 Hartree, Unit is Angstrom
 H      2.9950870090      0.5088262237      0.7769376378
 H     -1.0677221653      6.5754801073      1.2842164152
 H     -0.9594009808      2.8382345773      0.8248818317
 H      5.8970845026      2.0595504582      1.3927524775
 H      1.9928512820      3.9874437459      0.7890387686
 H      4.8210822291     -0.1712532188      4.7723619675
 H      1.4222036347      6.3217026547      4.7245720702
 H     -1.8487554626      4.4454066424      4.7380633945
 H      3.9816497296      3.8326303921      4.6170319678
 H      1.3264121254      1.7945266470      4.7124181084
 H      3.8904309382      0.2869931012     -0.4083320195
 H     -1.5576401786      6.3396562236     -0.1849332709
 H     -0.0954984385      2.1636960591     -0.2542707206
 H      5.2318096221      2.3984568750      0.0672608731
 H      2.3005812800      3.1122127155     -0.4598047629
 H      4.0432454843     -0.4236511580      3.4719629511
 H      0.9192240059      6.6890412713      3.3664130761
 H     -1.8482222708      3.4516668588      3.6043312734
 H      5.1483446406      3.3011603218      3.7603299960
 H      1.7679856086      2.7290480950      3.5063673604
 H      0.1475757971      5.7945915630      6.9225047213
 H     -2.9082338540      5.1159262867      6.9398192309
 H      0.6591315663      1.7973375289      6.9389312518
 H      5.3452159289      0.5041397394      7.0921533934
 H      2.0645805602      1.3042608555      6.8516522371
 H      5.2210013967      5.4347057222      6.9739967552
 H      2.0179565719      0.4635327242      3.2634166452
 H      5.6460491601      1.1450778321      3.4680388201
 H      3.2779206979      4.1188382982      3.0070035741
 H     -1.5343896637      5.7366731825      3.3983790860
 H      1.9349649864      4.9655176604      3.3610972832
 H     -0.2293732901      1.8116573911      3.3216258544
 O      2.9783397528      0.2933676933     -0.1289580182
 O     -1.2264296683      7.0305987087      0.4194290754
 O     -0.8898188205      2.0511565798      0.3312124214
 O      5.9247897631      1.8466698820      0.4145700017
 O      2.1678810048      4.0283398539     -0.1514762004
 O      4.9975294335     -0.3274251570      3.8299962315
 O      1.7240014587      6.3322750469      3.8087172701
 O     -2.2730142954      4.3188543562      3.8892738163
 O      4.6994822823      4.1752744771      4.0834636944
 O      1.3571005756      1.7823327545      3.7287529566
 O      4.6533984332     -0.0399609560      6.8448567398
 O      0.6424488469      6.5925343852      6.7787808626
 O     -2.3019607808      4.3436279713      6.8697564509
 O      4.8986258511      4.5219215284      6.9715874845
 O      1.5197428940      2.0433948827      6.5899641141
 O      2.3974304599     -0.4768226947      3.2595839926
 O     -0.8492415926      6.4980965724      3.4146491851
 O     -1.2076797240      2.0050865321      3.3932416350
 O      6.0800344692      2.0525811665      3.4535914050
 O      2.2316766019      4.0109661088      2.9466256947
 H      4.9821986436     -0.9273290062      6.9341683795
 H      1.4846989569      6.3510695273      7.1643969005
 H     -2.8243859970      3.7686842910      6.3361110637
 H      5.2970746770      4.1392291209      6.2022047158
 H      2.2586240223     -0.9408916265      2.3794923040
 H     -1.3079845905      7.2570770685      3.7574753019
 H     -1.6003711160      1.3604241112      2.7386985815
 H      7.0398393015      1.8885987822      3.4829051379
60
# ORCA AIMD Position Step 122, t=61.00 fs, E_Pot=-1525.78376437 Hartree, Unit is Angstrom
 H      2.9993711657      0.5204149875      0.7639089356
 H     -1.0672765214      6.5937286969      1.2574632335
 H     -0.9627508591      2.8549030661      0.8122352377
 H      5.9024449723      2.0490700993      1.3807746090
 H      1.9735122464      3.9721749054      0.7825547054
 H      4.8115067513     -0.1733356021      4.7685434911
 H      1.4306333648      6.3138931496      4.7267782304
 H     -1.8425248656      4.4411084459      4.7372853263
 H      3.9724900035      3.8357022806      4.6079337530
 H      1.3198653943      1.7832155958      4.7101437931
 H      3.9016491597      0.2807282530     -0.4068060560
 H     -1.5655513251      6.3427890947     -0.1840810356
 H     -0.0807413825      2.1461720218     -0.2542812663
 H      5.2445307688      2.4098513170      0.0474610798
 H      2.3049739002      3.0995020211     -0.4663696469
 H      4.0487361993     -0.4302789828      3.4743863470
 H      0.9217811226      6.6812675753      3.3753554728
 H     -1.8586983694      3.4446403943      3.5949034387
 H      5.1295787824      3.3045146509      3.7705097040
 H      1.7671475014      2.7327622697      3.4978445929
 H      0.1225365745      5.7969378435      6.9224051764
 H     -2.9173193769      5.1114377236      6.9535434647
 H      0.6581042440      1.7900538404      6.9440772118
 H      5.3440927936      0.5089094767      7.0969172310
 H      2.0883557090      1.3056020112      6.8468002901
 H      5.2288341794      5.4409666971      6.9759005416
 H      2.0047979843      0.4637894506      3.2555241424
 H      5.6439338838      1.1387429211      3.4807846779
 H      3.2761804408      4.1113489985      3.0088670883
 H     -1.5431019136      5.7275183739      3.4066382138
 H      1.9423802003      4.9648038807      3.3527254889
 H     -0.2239272353      1.8191177813      3.3303718887
 O      2.9839803465      0.2984803737     -0.1318786839
 O     -1.2251321425      7.0332902157      0.4196087616
 O     -0.8852474440      2.0516428582      0.3297239062
 O      5.9166375519      1.8436472966      0.4157385700
 O      2.1637473091      4.0227825199     -0.1550369663
 O      4.9950338196     -0.3312111785      3.8304009455
 O      1.7256821244      6.3314598106      3.8081742995
 O     -2.2696025124      4.3151131401      3.8893944875
 O      4.6996448776      4.1687986416      4.0841716568
 O      1.3588077193      1.7757724365      3.7294494417
 O      4.6495683063     -0.0406894860      6.8445938271
 O      0.6385027947      6.5906928632      6.7781580063
 O     -2.2989152436      4.3444265387      6.8701967346
 O      4.8974385676      4.5236178147      6.9750018552
 O      1.5207313737      2.0420452752      6.5882919409
 O      2.3968846394     -0.4818853791      3.2598232158
 O     -0.8451312281      6.4985957495      3.4174670611
 O     -1.2082321662      2.0034969191      3.3974887157
 O      6.0773564510      2.0530378592      3.4571975620
 O      2.2296582970      4.0120574412      2.9418216471
 H      4.9750978300     -0.9289104459      6.9476193137
 H      1.4803496156      6.3482921865      7.1786022380
 H     -2.8256456652      3.7535917167      6.3389339429
 H      5.3011879980      4.1400227803      6.2024735064
 H      2.2600493643     -0.9433124358      2.3725705357
 H     -1.3044509547      7.2778124417      3.7535673142
 H     -1.6116609400      1.3662839408      2.7320062747
 H      7.0514426349      1.9001785678      3.4765176278
60
# ORCA AIMD Position Step 123, t=61.50 fs, E_Pot=-1525.78544745 Hartree, Unit is Angstrom
 H      3.0044228803      0.5338178720      0.7579410671
 H     -1.0664713620      6.6109517298      1.2327670812
 H     -0.9657338575      2.8756263560      0.8015761246
 H      5.9077901955      2.0385208092      1.3684525189
 H      1.9540377921      3.9562170197      0.7791656741
 H      4.8017286690     -0.1753139861      4.7666759338
 H      1.4383104644      6.3062138603      4.7314702195
 H     -1.8353477629      4.4372745090      4.7392202117
 H      3.9613619432      3.8383769725      4.6009958931
 H      1.3134273344      1.7717493246      4.7091248419
 H      3.9153086751      0.2746749672     -0.4051683056
 H     -1.5730928441      6.3460638516     -0.1824358410
 H     -0.0679250547      2.1291857398     -0.2523249150
 H      5.2552852483      2.4232936267      0.0268405971
 H      2.3092921736      3.0873910089     -0.4717690625
 H      4.0544646092     -0.4368153587      3.4771915954
 H      0.9228389307      6.6731299395      3.3836813721
 H     -1.8690730590      3.4372036289      3.5850266616
 H      5.1114724922      3.3093694152      3.7813424652
 H      1.7656975470      2.7357156041      3.4886363445
 H      0.0957017639      5.7972375332      6.9224375015
 H     -2.9253306770      5.1061210247      6.9672808146
 H      0.6560199735      1.7825668444      6.9496802789
 H      5.3487615134      0.5181751682      7.1038136993
 H      2.1134432125      1.3058104895      6.8423175152
 H      5.2366819886      5.4469659181      6.9773567515
 H      1.9915109003      0.4630899320      3.2475945698
 H      5.6417901352      1.1311251713      3.4939652903
 H      3.2699414765      4.1036823233      3.0104914313
 H     -1.5499148435      5.7196369893      3.4153385513
 H      1.9502098660      4.9622259293      3.3431486926
 H     -0.2180660163      1.8272368085      3.3395506784
 O      2.9894473613      0.3035185151     -0.1352169559
 O     -1.2238756266      7.0360577247      0.4196285244
 O     -0.8805525325      2.0518478070      0.3280129836
 O      5.9085632059      1.8404879708      0.4169935638
 O      2.1596270009      4.0171677672     -0.1588354022
 O      4.9925298493     -0.3349787737      3.8306948584
 O      1.7275065708      6.3306622348      3.8075839163
 O     -2.2662672364      4.3114031385      3.8893995304
 O      4.6999070684      4.1622685416      4.0847520272
 O      1.3605575194      1.7693086541      3.7301001608
 O      4.6452830789     -0.0415248072      6.8441468546
 O      0.6345720422      6.5889609364      6.7774451706
 O     -2.2958163577      4.3454199419      6.8707346350
 O      4.8961553775      4.5253729457      6.9786240030
 O      1.5217170406      2.0407632083      6.5865384238
 O      2.3963852438     -0.4870870300      3.2598407077
 O     -0.8411069251      6.4989601714      3.4202178602
 O     -1.2089097512      2.0017230783      3.4015854905
 O      6.0747543142      2.0534773302      3.4607444887
 O      2.2278967118      4.0132646033      2.9370441160
 H      4.9690198300     -0.9331274107      6.9615088238
 H      1.4775587103      6.3453168440      7.1935387914
 H     -2.8283958532      3.7362901067      6.3399070286
 H      5.3066098355      4.1402793005      6.1997312536
 H      2.2613404379     -0.9434730518      2.3686202917
 H     -1.3018076553      7.2993921418      3.7497457993
 H     -1.6216978798      1.3744722162      2.7270220967
 H      7.0615325671      1.9120075560      3.4700831100
60
# ORCA AIMD Position Step 124, t=62.00 fs, E_Pot=-1525.78412923 Hartree, Unit is Angstrom
 H      3.0102379263      0.5491120366      0.7591428380
 H     -1.0646091982      6.6253224024      1.2136764792
 H     -0.9680880667      2.8987825303      0.7917949059
 H      5.9128813396      2.0284253089      1.3573196799
 H      1.9345379491      3.9396382712      0.7783489583
 H      4.7918223549     -0.1771946610      4.7668704319
 H      1.4453502479      6.2986808675      4.7382466392
 H     -1.8273833762      4.4337134883      4.7434467142
 H      3.9484054373      3.8408054802      4.5961691909
 H      1.3071896555      1.7602350074      4.7095060685
 H      3.9306020454      0.2688678511     -0.4031776466
 H     -1.5801702268      6.3497006668     -0.1798800602
 H     -0.0572895149      2.1128924101     -0.2482241717
 H      5.2646798332      2.4383771520      0.0059586579
 H      2.3134085864      3.0766247362     -0.4757962469
 H      4.0598024278     -0.4432940954      3.4800145147
 H      0.9217851138      6.6648950135      3.3910959661
 H     -1.8791723174      3.4293939844      3.5748870316
 H      5.0948808014      3.3142164090      3.7921900467
 H      1.7635026991      2.7375474863      3.4790250220
 H      0.0680127340      5.7965877453      6.9224752835
 H     -2.9320981016      5.0996667456      6.9808986730
 H      0.6537706530      1.7749279975      6.9554931683
 H      5.3574600476      0.5304725439      7.1122155569
 H      2.1387633780      1.3059517795      6.8378915840
 H      5.2442589986      5.4519939936      6.9783991809
 H      1.9784725234      0.4608491604      3.2398021673
 H      5.6400035808      1.1227422426      3.5074667184
 H      3.2594976414      4.0958775885      3.0117419341
 H     -1.5543404266      5.7136623091      3.4244445692
 H      1.9582005828      4.9581457639      3.3325811865
 H     -0.2121795446      1.8358722584      3.3490045501
 O      2.9947901688      0.3084749837     -0.1389937193
 O     -1.2227105275      7.0390004625      0.4192582152
 O     -0.8757367151      2.0518638296      0.3261383669
 O      5.9005433954      1.8371842576      0.4182046922
 O      2.1555236965      4.0114458781     -0.1628520472
 O      4.9900549307     -0.3387230892      3.8308962985
 O      1.7295062126      6.3298649081      3.8069894704
 O     -2.2630063573      4.3077405179      3.8893074967
 O      4.7002048347      4.1557731146      4.0852508351
 O      1.3623502758      1.7629715781      3.7306771685
 O      4.6406618382     -0.0424072297      6.8435555218
 O      0.6306604202      6.5872661766      6.7766733319
 O     -2.2927349853      4.3465495874      6.8713124238
 O      4.8948242474      4.5272055047      6.9823948798
 O      1.5227115330      2.0394773482      6.5847387640
 O      2.3959077069     -0.4923874434      3.2596222745
 O     -0.8372518025      6.4992454398      3.4229404508
 O     -1.2097137158      1.9997636431      3.4055227658
 O      6.0722797498      2.0538619639      3.4642344424
 O      2.2263854182      4.0145547936      2.9322887867
 H      4.9638281619     -0.9394414604      6.9758176688
 H      1.4753450152      6.3421932493      7.2088328975
 H     -2.8316673148      3.7180298177      6.3400673723
 H      5.3128542238      4.1404001382      6.1948627756
 H      2.2625454301     -0.9414499908      2.3677295659
 H     -1.2992525813      7.3202398166      3.7453977626
 H     -1.6300715121      1.3850943122      2.7239857052
 H      7.0689439413      1.9240957466      3.4636231985
60
# ORCA AIMD Position Step 125, t=62.50 fs, E_Pot=-1525.78031527 Hartree, Unit is Angstrom
 H      3.0168135695      0.5660414356      0.7663681274
 H     -1.0610267930      6.6352119126      1.2033841309
 H     -0.9695257121      2.9225253852      0.7817584334
 H      5.9175370186      2.0193062098      1.3489168957
 H      1.9152192669      3.9225551047      0.7792304701
 H      4.7819076613     -0.1790254454      4.7689909122
 H      1.4519296639      6.2913298180      4.7464515313
 H     -1.8189287312      4.4301875196      4.7492765290
 H      3.9340738728      3.8432420026      4.5931895997
 H      1.3012519389      1.7487851338      4.7112708288
 H      3.9465929527      0.2633734520     -0.4005504083
 H     -1.5867336804      6.3538172962     -0.1763738870
 H     -0.0488449108      2.0974581050     -0.2419828700
 H      5.2735240890      2.4544454649     -0.0144492660
 H      2.3172233653      3.0677305975     -0.4783303069
 H      4.0641199383     -0.4497535735      3.4824935297
 H      0.9182177564      6.6567335625      3.3974424539
 H     -1.8888447481      3.4213146117      3.5647094406
 H      5.0806878988      3.3173258564      3.8023742590
 H      1.7604576010      2.7379438019      3.4692988115
 H      0.0404972221      5.7961201648      6.9223865964
 H     -2.9375493110      5.0918962364      6.9942786599
 H      0.6522312826      1.7672068245      6.9612599397
 H      5.3680488557      0.5440035139      7.1213349857
 H      2.1632429959      1.3070095475      6.8332433270
 H      5.2513176853      5.4554883593      6.9790703535
 H      1.9660265461      0.4565974172      3.2323359540
 H      5.6389341603      1.1141297733      3.5211597215
 H      3.2454514492      4.0879771562      3.0125018376
 H     -1.5560614505      5.7100267446      3.4339042096
 H      1.9660638604      4.9530364462      3.3212846480
 H     -0.2066508947      1.8448811025      3.3585773933
 O      3.0000661222      0.3133616426     -0.1431534710
 O     -1.2216822669      7.0422119031      0.4182949931
 O     -0.8708187091      2.0517968876      0.3241715808
 O      5.8925384742      1.8337442115      0.4192299641
 O      2.1514331473      4.0055778547     -0.1670399239
 O      4.9876442979     -0.3424361563      3.8310393898
 O      1.7316957000      6.3290553076      3.8064417160
 O     -2.2598076662      4.3041402010      3.8891519759
 O      4.7004528992      4.1494087287      4.0857306730
 O      1.3641835920      1.7567874471      3.7311633941
 O      4.6358527816     -0.0432744804      6.8428726088
 O      0.6267679186      6.5855327603      6.7758764121
 O     -2.2897354877      4.3477468686      6.8718733007
 O      4.8934971210      4.5291201732      6.9862444627
 O      1.5237270852      2.0381202806      6.5829264767
 O      2.3954320057     -0.4977428731      3.2591721252
 O     -0.8336311571      6.4995085695      3.4256666517
 O     -1.2106363498      1.9976300093      3.4093046657
 O      6.0699652362      2.0541565479      3.4676691901
 O      2.2251008816      4.0158887587      2.9275466215
 H      4.9593013370     -0.9470209556      6.9904758691
 H      1.4727030999      6.3389891877      7.2240683665
 H     -2.8344962617      3.7000902082      6.3404217771
 H      5.3193315095      4.1408610175      6.1889151566
 H      2.2636704548     -0.9374911296      2.3696754482
 H     -1.2961051310      7.3389585380      3.7400315929
 H     -1.6365193523      1.3980432601      2.7229184017
 H      7.0728406463      1.9363982781      3.4571823374
60
# ORCA AIMD Position Step 126, t=63.00 fs, E_Pot=-1525.77584157 Hartree, Unit is Angstrom
 H      3.0241412011      0.5840797567      0.7775775355
 H     -1.0553164726      6.6397231532      1.2036803205
 H     -0.9697754824      2.9450957694      0.7704866848
 H      5.9216332465      2.0116235875      1.3445131975
 H      1.8963583362      3.9051319617      0.7807525408
 H      4.7721432963     -0.1808920762      4.7726841867
 H      1.4582530289      6.2842137973      4.7552836623
 H     -1.8103634589      4.4264370154      4.7558727312
 H      3.9190501924      3.8459876755      4.5916445555
 H      1.2957225526      1.7375193697      4.7142464310
 H      3.9623452674      0.2582837263     -0.3970117174
 H     -1.5927909355      6.3584038181     -0.1719632150
 H     -0.0423749562      2.0830408404     -0.2337758695
 H      5.2826545894      2.4707261779     -0.0335696735
 H      2.3206749357      3.0609957627     -0.4793456645
 H      4.0668536881     -0.4562269156      3.4843045384
 H      0.9120203675      6.6486935016      3.4027304224
 H     -1.8979619468      3.4131265417      3.5547488742
 H      5.0696938666      3.3169771047      3.8112692509
 H      1.7564881777      2.7366478780      3.4597421032
 H      0.0141392751      5.7968413288      6.9220582231
 H     -2.9417149880      5.0827690371      7.0073280792
 H      0.6521685824      1.7594723499      6.9667505256
 H      5.3784684291      0.5570254520      7.1303932646
 H      2.1859277379      1.3097798110      6.8281597092
 H      5.2576661143      5.4570760572      6.9794241384
 H      1.9544705904      0.4499972930      3.2253893526
 H      5.6388878262      1.1057933423      3.5349042381
 H      3.2287276367      4.0800223326      3.0126842649
 H     -1.5549152605      5.7089811688      3.4436549368
 H      1.9734897748      4.9474595670      3.3095548907
 H     -0.2018355889      1.8541192859      3.3681161330
 O      3.0053329899      0.3182058463     -0.1475839446
 O     -1.2208165032      7.0457478101      0.4166298446
 O     -0.8658303613      2.0517481103      0.3221851698
 O      5.8845034731      1.8301870551      0.4199394901
 O      2.1473441739      3.9995368219     -0.1713345025
 O      4.9853270655     -0.3461077118      3.8311699557
 O      1.7340703507      6.3282277996      3.8059902452
 O     -2.2566523500      4.3006147166      3.8889745500
 O      4.7005572443      4.1432682571      4.0862605728
 O      1.3660523339      1.7507777276      3.7315529174
 O      4.6310022030     -0.0440774355      6.8421531748
 O      0.6228912435      6.5836928312      6.7750863390
 O     -2.2868675062      4.3489429447      6.8723686541
 O      4.8922234488      4.5311106983      6.9901019263
 O      1.5247751929      2.0366363053      6.5811291487
 O      2.3949434114     -0.5031080717      3.2585128989
 O     -0.8302902298      6.4997998391      3.4284189271
 O     -1.2116617470      1.9953454991      3.4129489839
 O      6.0678233973      2.0543302718      3.4710502554
 O      2.2240007994      4.0172220773      2.9228040275
 H      4.9551675402     -0.9548811987      7.0053657678
 H      1.4687225379      6.3357699211      7.2388416281
 H     -2.8360495277      3.6836164649      6.3418213689
 H      5.3254337965      4.1421222847      6.1829344791
 H      2.2646814231     -0.9320024659      2.3739303472
 H     -1.2918576601      7.3544440317      3.7333067805
 H     -1.6409365584      1.4130126780      2.7236171545
 H      7.0727504505      1.9488291497      3.4508183217
60
# ORCA AIMD Position Step 127, t=63.50 fs, E_Pot=-1525.77218082 Hartree, Unit is Angstrom
 H      3.0321979932      0.6025603979      0.7903723618
 H     -1.0475050980      6.6390527208      1.2142233227
 H     -0.9686124963      2.9650126949      0.7572369012
 H      5.9250872336      2.0057118978      1.3448217302
 H      1.8782632253      3.8875710715      0.7818381969
 H      4.7627126727     -0.1829080296      4.7774394942
 H      1.4645229272      6.2773970287      4.7639058083
 H     -1.8020900526      4.4222056575      4.7623715771
 H      3.9041419812      3.8493332733      4.5910470524
 H      1.2907177980      1.7265652193      4.7181224213
 H      3.9770252504      0.2537042426     -0.3923368759
 H     -1.5984118356      6.3633160511     -0.1667738427
 H     -0.0374485982      2.0697729474     -0.2239315980
 H      5.2928022416      2.4864564984     -0.0506112126
 H      2.3237479095      3.0564650172     -0.4789128760
 H      4.0675769113     -0.4627307176      3.4851951195
 H      0.9033879183      6.6406996974      3.4071331895
 H     -1.9064158591      3.4050327019      3.5452779684
 H      5.0624697951      3.3118008093      3.8184202298
 H      1.7515502337      2.7334564856      3.4506309706
 H     -0.0102119448      5.7995402416      6.9214088251
 H     -2.9447277616      5.0723808827      7.0199891736
 H      0.6541763450      1.7517768294      6.9717872658
 H      5.3870016050      0.5680815517      7.1387236403
 H      2.2060498853      1.3148238046      6.8225060177
 H      5.2631795579      5.4565970964      6.9795269983
 H      1.9440460507      0.4408529944      3.2191505048
 H      5.6400988594      1.0981732614      3.5485561697
 H      3.2105903157      4.0720510137      3.0122491801
 H     -1.5508794377      5.7106130100      3.4536300800
 H      1.9801622957      4.9420452658      3.2977107127
 H     -0.1980421284      1.8634421859      3.3774729326
 O      3.0106431013      0.3230430173     -0.1521472110
 O     -1.2201075524      7.0496038483      0.4142932729
 O     -0.8608139853      2.0518028668      0.3202462910
 O      5.8763974195      1.8265392089      0.4202397737
 O      2.1432404960      3.9933087840     -0.1756640503
 O      4.9831225593     -0.3497264630      3.8313394940
 O      1.7366063625      6.3273839341      3.8056766846
 O     -2.2535189568      4.2971734898      3.8888177088
 O      4.7004306490      4.1374233055      4.0869036736
 O      1.3679489093      1.7449589599      3.7318500221
 O      4.6262356945     -0.0447855595      6.8414474197
 O      0.6190242755      6.5816933418      6.7743295541
 O     -2.2841622789      4.3500744530      6.8727611134
 O      4.8910452607      4.5331625187      6.9939034139
 O      1.5258663872      2.0349854718      6.5793661295
 O      2.3944330295     -0.5084380547      3.2576851034
 O     -0.8272542361      6.5001590888      3.4312099932
 O     -1.2127666831      1.9929443141      3.4164873198
 O      6.0658473697      2.0543576145      3.4743789669
 O      2.2230223510      4.0185068363      2.9180428214
 H      4.9511412838     -0.9620294535      7.0203345562
 H      1.4626701313      6.3325828401      7.2528056137
 H     -2.8356848063      3.6695304281      6.3449054004
 H      5.3306011576      4.1445641244      6.1778419774
 H      2.2655066510     -0.9255302863      2.3796780043
 H     -1.2861886058      7.3659287329      3.7250331947
 H     -1.6433811510      1.4295140933      2.7256519862
 H      7.0685760634      1.9612765542      3.4445925347
60
# ORCA AIMD Position Step 128, t=64.00 fs, E_Pot=-1525.76970699 Hartree, Unit is Angstrom
 H      3.0409401841      0.6208071327      0.8024565376
 H     -1.0380592537      6.6343953546      1.2326912056
 H     -0.9658767285      2.9811625391      0.7415241937
 H      5.9278281723      2.0017384389      1.3498039493
 H      1.8612347976      3.8700981268      0.7815261252
 H      4.7538066742     -0.1852019517      4.7826635185
 H      1.4709178841      6.2709465543      4.7715440645
 H     -1.7944824047      4.4172614761      4.7679841545
 H      3.8901627021      3.8535127193      4.5909116987
 H      1.2863587485      1.7160584683      4.7224907216
 H      3.9899673491      0.2497406374     -0.3863781497
 H     -1.6037240508      6.3682903132     -0.1609973697
 H     -0.0334512965      2.0577477314     -0.2129018017
 H      5.3045120285      2.5009831886     -0.0648926864
 H      2.3264781722      3.0539486468     -0.4771946153
 H      4.0660684000     -0.4692542906      3.4850148182
 H      0.8927983389      6.6325765580      3.4109563825
 H     -1.9141178980      3.3972631801      3.5365740352
 H      5.0592209028      3.3011339169      3.8236513958
 H      1.7456314912      2.7282260997      3.4422249227
 H     -0.0318987948      5.8047490062      6.9203946522
 H     -2.9468129919      5.0609484231      7.0322440033
 H      0.6586412775      1.7441438821      6.9762620344
 H      5.3923663662      0.5760901631      7.1458135143
 H      2.2230672456      1.3224558910      6.8162273882
 H      5.2678062581      5.4541094532      6.9794577293
 H      1.9349277898      0.4291209632      3.2137942904
 H      5.6427192646      1.0916183181      3.5619729973
 H      3.1926072447      4.0640939686      3.0112120769
 H     -1.5440627564      5.7148582282      3.4637632377
 H      1.9857818578      4.9374444984      3.2860716381
 H     -0.1955162725      1.8727057327      3.3865065837
 O      3.0160396593      0.3279092678     -0.1567071229
 O     -1.2195183334      7.0537206247      0.4114448863
 O     -0.8558192339      2.0520259808      0.3184135467
 O      5.8681901965      1.8228306128      0.4200916135
 O      2.1391028132      3.9868930439     -0.1799583369
 O      4.9810370467     -0.3532814517      3.8315984479
 O      1.7392639197      6.3265316304      3.8055304289
 O     -2.2503868083      4.2938224706      3.8887190750
 O      4.7000086252      4.1319049512      4.0877054778
 O      1.3698635541      1.7393421731      3.7320670225
 O      4.6216504015     -0.0453853365      6.8407970165
 O      0.6151588547      6.5794991459      6.7736247905
 O     -2.2816319652      4.3510871872      6.8730252643
 O      4.8899940741      4.5352549163      6.9975968213
 O      1.5270099304      2.0331451210      6.5776474291
 O      2.3938979685     -0.5136908181      3.2567446890
 O     -0.8245289606      6.5006142557      3.4340433230
 O     -1.2139218918      1.9904696669      3.4199644767
 O      6.0640112366      2.0542188379      3.4776566786
 O      2.2220831753      4.0196947622      2.9132412327
 H      4.9469544849     -0.9675796185      7.0352119247
 H      1.4540334928      6.3294483331      7.2657001176
 H     -2.8329719742      3.6584867117      6.3500862963
 H      5.3343657063      4.1484472192      6.1743588412
 H      2.2660435491     -0.9187278877      2.3858588938
 H     -1.2789602072      7.3729958223      3.7151590908
 H     -1.6440685618      1.4469053368      2.7283752684
 H      7.0605985903      1.9736167537      3.4385600484
60
# ORCA AIMD Position Step 129, t=64.50 fs, E_Pot=-1525.76832434 Hartree, Unit is Angstrom
 H      3.0502993089      0.6382248647      0.8119134735
 H     -1.0277125425      6.6274665708      1.2556979388
 H     -0.9614815510      2.9928249749      0.7231077985
 H      5.9297705453      1.9996981060      1.3586687150
 H      1.8455347824      3.8529472214      0.7790610766
 H      4.7456053531     -0.1879029499      4.7877578778
 H      1.4775793009      6.2649235279      4.7775604849
 H     -1.7878470823      4.4114125666      4.7720698229
 H      3.8778341979      3.8586752976      4.5908128817
 H      1.2827658816      1.7061415843      4.7268948259
 H      4.0007106466      0.2464862532     -0.3790779137
 H     -1.6088962759      6.3729825078     -0.1548623500
 H     -0.0296364103      2.0470098270     -0.2012187783
 H      5.3181136329      2.5138236432     -0.0759007158
 H      2.3289554219      3.0530411289     -0.4744363965
 H      4.0623482976     -0.4757522518      3.4837306659
 H      0.8809340805      6.6240895342      3.4145841496
 H     -1.9209959846      3.3900551029      3.5289042528
 H      5.0597312747      3.2852134981      3.8271074344
 H      1.7387540432      2.7208803796      3.4347586173
 H     -0.0504842831      5.8127368973      6.9190096669
 H     -2.9482714066      5.0487850698      7.0441152337
 H      0.6657281646      1.7365599603      6.9801464676
 H      5.3937073814      0.5803452160      7.1513073001
 H      2.2366818925      1.3327508090      6.8093442783
 H      5.2715690051      5.4498816677      6.9793061636
 H      1.9272138372      0.4149187358      3.2094752038
 H      5.6468176402      1.0863748263      3.5750190729
 H      3.1765390208      4.0561714341      3.0096445542
 H     -1.5347012736      5.7215077309      3.4739921489
 H      1.9900922430      4.9342681884      3.2749325207
 H     -0.1944287319      1.8817680689      3.3950840228
 O      3.0215546605      0.3328364204     -0.1611459421
 O     -1.2189923153      7.0580112054      0.4083138738
 O     -0.8508993673      2.0524606598      0.3167351866
 O      5.8598660901      1.8190912328      0.4195138368
 O      2.1349106651      3.9803020293     -0.1841548387
 O      4.9790625005     -0.3567634902      3.8319902076
 O      1.7419928126      6.3256831540      3.8055673771
 O     -2.2472387757      4.2905643270      3.8887074845
 O      4.6992588606      4.1266933877      4.0886873714
 O      1.3717847281      1.7339324022      3.7322214785
 O      4.6173142368     -0.0458754234      6.8402338867
 O      0.6112854172      6.5770937866      6.7729818599
 O     -2.2792708916      4.3519384529      6.8731472508
 O      4.8890893598      4.5373625555      7.0011441820
 O      1.5282135627      2.0311100288      6.5759734512
 O      2.3933411918     -0.5188312273      3.2557576792
 O     -0.8221012313      6.5011809603      3.4369139254
 O     -1.2150942216      1.9879708795      3.4234364277
 O      6.0622705524      2.0538998308      3.4808850178
 O      2.2210867857      4.0207412564      2.9083756647
 H      4.9423787986     -0.9708300954      7.0498282235
 H      1.4425400536      6.3263541952      7.2773717527
 H     -2.8276922329      3.6508587030      6.3575563978
 H      5.3363755192      4.1538953778      6.1729704348
 H      2.2661714279     -0.9123015340      2.3912624601
 H     -1.2702116834      7.3755822157      3.7037560040
 H     -1.6433491967      1.4644366707      2.7309540048
 H      7.0494710103      1.9857267659      3.4327601039
60
# ORCA AIMD Position Step 130, t=65.00 fs, E_Pot=-1525.76812490 Hartree, Unit is Angstrom
 H      3.0601820329      0.6543464562      0.8173128889
 H     -1.0172512631      6.6199930268      1.2797896539
 H     -0.9554164567      2.9996752521      0.7019642758
 H      5.9308039341      1.9994430046      1.3700615557
 H      1.8313614127      3.8363457376      0.7739434930
 H      4.7382623182     -0.1911282744      4.7921820012
 H      1.4846071409      6.2593752256      4.7814981467
 H     -1.7823994878      4.4045156037      4.7741793339
 H      3.8677189365      3.8648773569      4.5904213661
 H      1.2800513933      1.6969601141      4.7308832781
 H      4.0090159536      0.2440102601     -0.3704714957
 H     -1.6141162815      6.3770190740     -0.1486024542
 H     -0.0252026941      2.0375481787     -0.1894375254
 H      5.3337265792      2.5246998593     -0.0833222306
 H      2.3313238259      3.0531521853     -0.4709527846
 H      4.0566761074     -0.4821431610      3.4814263569
 H      0.8685845899      6.6149899830      3.4184211980
 H     -1.9269925226      3.3836332300      3.5225116931
 H      5.0634183583      3.2651085322      3.8292064096
 H      1.7309775041      2.7114254200      3.4284311476
 H     -0.0657693138      5.8235183946      6.9172839942
 H     -2.9494530093      5.0362672823      7.0556640884
 H      0.6753796602      1.7289687188      6.9834973291
 H      5.3905546453      0.5804850331      7.1549957067
 H      2.2468523267      1.3455573742      6.8019463082
 H      5.2745636352      5.4443758895      6.9791713645
 H      1.9209173186      0.3985247208      3.2063204785
 H      5.6523828446      1.0825806198      3.5875712367
 H      3.1641259708      4.0482915387      3.0076594936
 H     -1.5231642689      5.7302008181      3.4842637977
 H      1.9929098835      4.9330153200      3.2645353192
 H     -0.1948751675      1.8904939098      3.4030819192
 O      3.0272077789      0.3378497756     -0.1653708619
 O     -1.2184684246      7.0623898935      0.4051340977
 O     -0.8461062608      2.0531287342      0.3152472155
 O      5.8514241437      1.8153470738      0.4185733881
 O      2.1306439463      3.9735603122     -0.1882026546
 O      4.9771775702     -0.3601660500      3.8325470519
 O      1.7447387662      6.3248528751      3.8057906656
 O     -2.2440629911      4.2873991293      3.8888009487
 O      4.6981818621      4.1217227307      4.0898471396
 O      1.3736996884      1.7287281554      3.7323333139
 O      4.6132677112     -0.0462618265      6.8397798303
 O      0.6073938340      6.5744792634      6.7724008328
 O     -2.2770576435      4.3525995221      6.8731242054
 O      4.8883379804      4.5394567213      7.0045226784
 O      1.5294827668      2.0288919677      6.5743350655
 O      2.3927708031     -0.5238360671      3.2547908875
 O     -0.8199385808      6.5018622534      3.4398091325
 O     -1.2162498259      1.9854987058      3.4269658754
 O      6.0605632978      2.0533917434      3.4840662771
 O      2.2199342305      4.0216098510      2.9034235611
 H      4.9372390420     -0.9713096138      7.0640325408
 H      1.4281612111      6.3232521836      7.2877890046
 H     -2.8198320745      3.6467328371      6.3672997552
 H      5.3364063006      4.1608924194      6.1739129551
 H      2.2657722791     -0.9069316227      2.3946805595
 H     -1.2601568461      7.3739895123      3.6910049549
 H     -1.6416602051      1.4813241443      2.7324399637
 H      7.0362004736      1.9974973987      3.4272057937
60
# ORCA AIMD Position Step 131, t=65.50 fs, E_Pot=-1525.76934267 Hartree, Unit is Angstrom
 H      3.0704693170      0.6688491538      0.8177237986
 H     -1.0073637586      6.6134097771      1.3020673101
 H     -0.9477485369      3.0017870145      0.6782647596
 H      5.9308020025      2.0007301146      1.3823561762
 H      1.8188344969      3.8205036382      0.7659521467
 H      4.7318943995     -0.1949747750      4.7954987887
 H      1.4920580418      6.2543297622      4.7831088045
 H     -1.7782515980      4.3964809873      4.7740765780
 H      3.8601763850      3.8720840547      4.5895273714
 H      1.2783140202      1.6886569994      4.7340419990
 H      4.0148709209      0.2423505000     -0.3606839111
 H     -1.6195559553      6.3800627684     -0.1424112037
 H     -0.0194045172      2.0292979955     -0.1780646754
 H      5.3512796170      2.5335506222     -0.0870551206
 H      2.3337742871      3.0535609409     -0.4671055105
 H      4.0495123464     -0.4883150675      3.4782841779
 H      0.8565455374      6.6050573132      3.4228389231
 H     -1.9320669225      3.3781994511      3.5176028075
 H      5.0694764216      3.2424222670      3.8305240128
 H      1.7223977554      2.6999440080      3.4234025778
 H     -0.0778053252      5.8368640752      6.9152819877
 H     -2.9507177110      5.0237899524      7.0669803461
 H      0.6873261783      1.7212679250      6.9864567581
 H      5.3827907750      0.5764661543      7.1568073927
 H      2.2538058797      1.3605073177      6.7941875994
 H      5.2769487631      5.4382112494      6.9791592675
 H      1.9159525503      0.3803937350      3.2044272412
 H      5.6593305173      1.0802629152      3.5995217908
 H      3.1567786147      4.0404526394      3.0053811908
 H     -1.5099573021      5.7404228291      3.4945378691
 H      1.9941491123      4.9340083633      3.2550482465
 H     -0.1968534360      1.8987544471      3.4103878701
 O      3.0330060318      0.3429674384     -0.1693150366
 O     -1.2178927265      7.0667870153      0.4021019604
 O     -0.8414834061      2.0540303313      0.3139703715
 O      5.8428764576      1.8116164580      0.4173676080
 O      2.1262843600      3.9667018943     -0.1920652608
 O      4.9753505853     -0.3634855660      3.8332882642
 O      1.7474496857      6.3240548464      3.8061921742
 O     -2.2408536760      4.2843248689      3.8890058754
 O      4.6968045825      4.1168995234      4.0911645767
 O      1.3755947690      1.7237214654      3.7324227213
 O      4.6095255452     -0.0465547251      6.8394462361
 O      0.6034748122      6.5716753924      6.7718717255
 O     -2.2749576878      4.3530590006      6.8729643889
 O      4.8877346248      4.5415074036      7.0077248026
 O      1.5308193901      2.0265194296      6.5727140616
 O      2.3921989843     -0.5287007496      3.2538994591
 O     -0.8179890266      6.5026481831      3.4427093018
 O     -1.2173601172      1.9830991022      3.4306149881
 O      6.0588132419      2.0526907081      3.4872037805
 O      2.2185421431      4.0222767727      2.8983666948
 H      4.9314212583     -0.9688016709      7.0777070019
 H      1.4111031769      6.3200575615      7.2970486321
 H     -2.8095817842      3.6458993074      6.3790999075
 H      5.3343665104      4.1692853591      6.1771742742
 H      2.2647585894     -0.9031763047      2.3951111539
 H     -1.2491818864      7.3688933409      3.6771845343
 H     -1.6394473842      1.4968471674      2.7318855483
 H      7.0220887267      2.0088437569      3.4218776291
60
# ORCA AIMD Position Step 132, t=66.00 fs, E_Pot=-1525.77182059 Hartree, Unit is Angstrom
 H      3.0810198921      0.6815545945      0.8126684241
 H     -0.9985914473      6.6087872111      1.3203345523
 H     -0.9386222795      2.9996631904      0.6523575852
 H      5.9296360848      2.0032652117      1.3939087307
 H      1.8079807836      3.8055983329      0.7551608493
 H      4.7265730581     -0.1995090683      4.7974121040
 H      1.4999486740      6.2497915273      4.7823636565
 H     -1.7753979630      4.3872766464      4.7717617482
 H      3.8553373619      3.8801843230      4.5880516438
 H      1.2776295898      1.6813677421      4.7360434060
 H      4.0184818613      0.2415034581     -0.3499226097
 H     -1.6253391810      6.3818829121     -0.1364124374
 H     -0.0116553449      2.0221457118     -0.1674927301
 H      5.3705402033      2.5405387503     -0.0872133690
 H      2.3365356356      3.0534792388     -0.4632786797
 H      4.0414493350     -0.4941326228      3.4745565679
 H      0.8455428731      6.5941215773      3.4281426156
 H     -1.9361822330      3.3738974491      3.5143304444
 H      5.0770265290      3.2189413830      3.8316763135
 H      1.7131594260      2.6866529163      3.4197688346
 H     -0.0869074888      5.8523095909      6.9130997997
 H     -2.9523979874      5.0117252422      7.0781706934
 H      0.7011003448      1.7133066624      6.9892516047
 H      5.3706370240      0.5685527630      7.1568059914
 H      2.2580523601      1.3770252494      6.7862817548
 H      5.2789292787      5.4321138695      6.9793818077
 H      1.9121299319      0.3611473865      3.2038544468
 H      5.6675194269      1.0793566318      3.6107819926
 H      3.1552601684      4.0326564085      3.0028971125
 H     -1.4957206688      5.7515020733      3.5047924082
 H      1.9938412725      4.9373254752      3.2465401069
 H     -0.2002853146      1.9064345846      3.4169016448
 O      3.0389440938      0.3482009798     -0.1729350495
 O     -1.2172235536      7.0711490471      0.3993649095
 O     -0.8370594823      2.0551415202      0.3129070912
 O      5.8342454538      1.8079068091      0.4160083628
 O      2.1218169874      3.9597671653     -0.1957229277
 O      4.9735440988     -0.3667221076      3.8342194470
 O      1.7500799397      6.3233022596      3.8067540082
 O     -2.2376129332      4.2813387695      3.8893164825
 O      4.6951726152      4.1121235512      4.0926081974
 O      1.3774557944      1.7188956746      3.7325082613
 O      4.6060776040     -0.0467676305      6.8392334733
 O      0.5995213469      6.5687194231      6.7713741651
 O     -2.2729254661      4.3533264619      6.8726879563
 O      4.8872629357      4.5434857370      7.0107580323
 O      1.5322199669      2.0240372677      6.5710833752
 O      2.3916408719     -0.5334442798      3.2531154316
 O     -0.8161808386      6.5035156915      3.4455891305
 O     -1.2184070042      1.9808070094      3.4344362820
 O      6.0569354657      2.0517967814      3.4903022232
 O      2.2168612308      4.0227327551      2.8931956542
 H      4.9248723842     -0.9633473504      7.0907794617
 H      1.3917983959      6.3166471128      7.3053838847
 H     -2.7973397329      3.6478354901      6.3925401136
 H      5.3302975864      4.1787949755      6.1825002501
 H      2.2630999279     -0.9013862837      2.3919482060
 H     -1.2378414017      7.3613492701      3.6626515657
 H     -1.6370723331      1.5104528802      2.7284907658
 H      7.0086294302      2.0197195400      3.4167195101
60
# ORCA AIMD Position Step 133, t=66.50 fs, E_Pot=-1525.77464583 Hartree, Unit is Angstrom
 H      3.0916690468      0.6924309533      0.8021129514
 H     -0.9913131183      6.6068431995      1.3331080018
 H     -0.9282561676      2.9942474793      0.6247455861
 H      5.9272011788      2.0067389357      1.4032825789
 H      1.7987298038      3.7917672451      0.7419329003
 H      4.7223230733     -0.2047678863      4.7977761557
 H      1.5082569107      6.2457393406      4.7794569392
 H     -1.7737229984      4.3769244821      4.7674608401
 H      3.8531013120      3.8889985857      4.5860455167
 H      1.2780479669      1.6752115953      4.7366674114
 H      4.0202642880      0.2414237420     -0.3384680924
 H     -1.6315150386      6.3823892857     -0.1306312054
 H     -0.0016477099      2.0159446097     -0.1579408475
 H      5.3911420233      2.5460434322     -0.0841109471
 H      2.3398468094      3.0521614327     -0.4598403028
 H      4.0331374180     -0.4994538104      3.4705316527
 H      0.8361736915      6.5820878688      3.4345429683
 H     -1.9393145596      3.3708150871      3.5127868956
 H      5.0852469570      3.1963335693      3.8332207175
 H      1.7034511911      2.6718854021      3.4175627412
 H     -0.0936640988      5.8691661607      6.9108643929
 H     -2.9547461524      5.0003711143      7.0893370661
 H      0.7160822299      1.7048941507      6.9921767873
 H      5.3546731260      0.5573306629      7.1552020900
 H      2.2603793192      1.3943493654      6.7784950586
 H      5.2807288084      5.4268409092      6.9799530964
 H      1.9091558478      0.3415622395      3.2046236033
 H      5.6767561006      1.0796915884      3.6212837302
 H      3.1594828995      4.0249248516      3.0002308766
 H     -1.4812275199      5.7626137159      3.5150280745
 H      1.9921346988      4.9427984013      3.2389897801
 H     -0.2049963639      1.9134316201      3.4225362296
 O      3.0450047927      0.3535551598     -0.1762108999
 O     -1.2164341755      7.0754355443      0.3970189392
 O     -0.8328410260      2.0564126193      0.3120392579
 O      5.8255607463      1.8042129289      0.4146068916
 O      2.1172323190      3.9527964713     -0.1991748654
 O      4.9717197084     -0.3698782337      3.8353339827
 O      1.7525939188      6.3226056719      3.8074498344
 O     -2.2343497125      4.2784381449      3.8897157972
 O      4.6933420495      4.1073063207      4.0941412151
 O      1.3792682397      1.7142264007      3.7326055023
 O      4.6028875001     -0.0469178020      6.8391295857
 O      0.5955314156      6.5656650714      6.7708779627
 O     -2.2709076258      4.3534361526      6.8723277098
 O      4.8868972739      4.5453681325      7.0136447761
 O      1.5336731832      2.0215048407      6.5694086463
 O      2.3911131567     -0.5381118745      3.2524379877
 O     -0.8144240709      6.5044294323      3.4484188513
 O     -1.2193900846      1.9786398199      3.4384616488
 O      6.0548485636      2.0507144768      3.4933670385
 O      2.2148892629      4.0229833801      2.8879113320
 H      4.9176025520     -0.9552525102      7.1032331729
 H      1.3708725427      6.3128635808      7.3131547409
 H     -2.7837130436      3.6516990667      6.4070108520
 H      5.3243743804      4.1890264292      6.1894005699
 H      2.2608419850     -0.9016458671      2.3851381746
 H     -1.2268419850      7.3527674141      3.6478201369
 H     -1.6347095553      1.5218567922      2.7217755110
 H      6.9973120046      2.0301192802      3.4116484721
60
# ORCA AIMD Position Step 134, t=67.00 fs, E_Pot=-1525.77637041 Hartree, Unit is Angstrom
 H      3.1022347071      0.7016012532      0.7864561651
 H     -0.9857699295      6.6080128135      1.3394734223
 H     -0.9169343123      2.9869390482      0.5960496998
 H      5.9234291093      2.0108490683      1.4093477617
 H      1.7909076201      3.7790943743      0.7269101469
 H      4.7191202810     -0.2107545733      4.7966088204
 H      1.5169266422      6.2421253631      4.7748008202
 H     -1.7730011558      4.3654977181      4.7616253894
 H      3.8531361754      3.8982970216      4.5836886517
 H      1.2795893965      1.6702859051      4.7358141761
 H      4.0208202319      0.2420186080     -0.3266597963
 H     -1.6380481651      6.3816541149     -0.1249945607
 H      0.0105931796      2.0105291026     -0.1494305781
 H      5.4126264445      2.5506531234     -0.0782490047
 H      2.3439296797      3.0490142250     -0.4571044834
 H      4.0252133716     -0.5041407156      3.4665018999
 H      0.8288700145      6.5689368879      3.4421503193
 H     -1.9414473273      3.3689656857      3.5129922734
 H      5.0934341205      3.1759845078      3.8356130945
 H      1.6935057845      2.6561092138      3.4167419406
 H     -0.0989312465      5.8865502280      6.9087295740
 H     -2.9578993363      4.9899136621      7.1005592400
 H      0.7315569230      1.6958104890      6.9955744550
 H      5.3358711729      0.5437351145      7.1523710554
 H      2.2618275365      1.4115733135      6.7711328110
 H      5.2825552316      5.4230894252      6.9809873534
 H      1.9066429216      0.3225336094      3.2067196476
 H      5.6868129959      1.0810113549      3.6309819453
 H      3.1685344782      4.0173161923      2.9973316831
 H     -1.4673421401      5.7728229718      3.5252718122
 H      1.9892800423      4.9500336906      3.2322953767
 H     -0.2107211767      1.9196597846      3.4272201881
 O      3.0511601759      0.3590277648     -0.1791461158
 O     -1.2155118254      7.0796133560      0.3951175448
 O     -0.8288096162      2.0577663488      0.3113289546
 O      5.8168557080      1.8005160503      0.4132665941
 O      2.1125283838      3.9458239832     -0.2024409334
 O      4.9698424531     -0.3729590098      3.8366140966
 O      1.7549677420      6.3219731827      3.8082456078
 O     -2.2310802066      4.2756214843      3.8901763380
 O      4.6913756715      4.1023797918      4.0957243697
 O      1.3810173947      1.7096808417      3.7327266739
 O      4.5998907496     -0.0470287162      6.8391084231
 O      0.5915107722      6.5625801534      6.7703443140
 O     -2.2688460392      4.3534488009      6.8719288577
 O      4.8866055409      4.5471406151      7.0164213105
 O      1.5351578883      2.0189927769      6.5676503413
 O      2.3906335198     -0.5427724143      3.2518331521
 O     -0.8126160588      6.5053453358      3.4511672081
 O     -1.2203297709      1.9765948297      3.4426958740
 O      6.0524890013      2.0494523269      3.4964034034
 O      2.2126702599      4.0230464370      2.8825249006
 H      4.9096799498     -0.9450759180      7.1151179484
 H      1.3490960442      6.3085234242      7.3208321983
 H     -2.7695037153      3.6563374295      6.4217303751
 H      5.3168954955      4.1994913884      6.1971673862
 H      2.2581062751     -0.9037757080      2.3751878235
 H     -1.2169900343      7.3448103027      3.6331146431
 H     -1.6322941848      1.5310848040      2.7116837711
 H      6.9893774825      2.0400812767      3.4065723425
60
# ORCA AIMD Position Step 135, t=67.50 fs, E_Pot=-1525.77586216 Hartree, Unit is Angstrom
 H      3.1125238940      0.7093569241      0.7665445651
 H     -0.9820844234      6.6125071483      1.3389803761
 H     -0.9049859716      2.9795384610      0.5669524054
 H      5.9182980211      2.0153117779      1.4113313324
 H      1.7842413840      3.7676018209      0.7109867849
 H      4.7168932305     -0.2174400526      4.7940919878
 H      1.5258735771      6.2388763533      4.7690063343
 H     -1.7729102149      4.3531141888      4.7549106435
 H      3.8548992105      3.9078145740      4.5812763811
 H      1.2822426923      1.6666597779      4.7335203414
 H      4.0208949989      0.2431510677     -0.3148790550
 H     -1.6448195798      6.3799055430     -0.1193449668
 H      0.0247153989      2.0057310496     -0.1418030080
 H      5.4344891471      2.5551252604     -0.0702770357
 H      2.3489537187      3.0436997607     -0.4552965386
 H      4.0182458020     -0.5080711705      3.4627379411
 H      0.8238773175      6.5547255702      3.4509725386
 H     -1.9425683140      3.3682767807      3.5148872625
 H      5.1010227845      3.1589393504      3.8391946689
 H      1.6835985566      2.6399337436      3.4171813766
 H     -0.1037896334      5.9034404212      6.9068671943
 H     -2.9618580983      4.9804069135      7.1118763174
 H      0.7467979175      1.6858295039      6.9997968375
 H      5.3156230393      0.5290692704      7.1488689147
 H      2.2636100845      1.4277240875      6.7645153833
 H      5.2845618328      5.4213984915      6.9825949030
 H      1.9041443899      0.3050044299      3.2100953621
 H      5.6974413308      1.0829818925      3.6398549983
 H      3.1809045218      4.0099321603      2.9940912222
 H     -1.4549503920      5.7811659085      3.5355737036
 H      1.9856025565      4.9584682268      3.2262980558
 H     -0.2171137200      1.9250522102      3.4308997298
 O      3.0573738223      0.3646085534     -0.1817697621
 O     -1.2144564450      7.0836533481      0.3936792332
 O     -0.8249235362      2.0591001883      0.3107231215
 O      5.8081639904      1.7967856734      0.4120774068
 O      2.1077127106      3.9388716831     -0.2055622419
 O      4.9678840797     -0.3759714425      3.8380324529
 O      1.7571901078      6.3214102962      3.8091008952
 O     -2.2278270991      4.2728896593      3.8906619407
 O      4.6893403448      4.0972989503      4.0973175307
 O      1.3826884641      1.7052179418      3.7328800524
 O      4.5969933865     -0.0471327166      6.8391283221
 O      0.5874750270      6.5595420015      6.7697288972
 O     -2.2666822800      4.3534485954      6.8715465770
 O      4.8863529423      4.5488029782      7.0191355628
 O      1.5366429892      2.0165766143      6.5657674761
 O      2.3902196556     -0.5475102933      3.2512408156
 O     -0.8106517169      6.5062179925      3.4538053473
 O     -1.2212662937      1.9746508084      3.4471150600
 O      6.0498265139      2.0480234803      3.4994143904
 O      2.2102818214      4.0229478685      2.8770553725
 H      4.9012240724     -0.9336050116      7.1265543255
 H      1.3273084006      6.3034319037      7.3289568781
 H     -2.7556572561      3.6603564173      6.4358005084
 H      5.3082621672      4.2096405210      6.2049145094
 H      2.2550714053     -0.9073897229      2.3630507439
 H     -1.2090973351      7.3391884279      3.6189117244
 H     -1.6295276536      1.5384497931      2.6986076345
 H      6.9855641411      2.0496738565      3.4014200877
60
# ORCA AIMD Position Step 136, t=68.00 fs, E_Pot=-1525.77323858 Hartree, Unit is Angstrom
 H      3.1223442345      0.7161753533      0.7436922966
 H     -0.9802709871      6.6203479065      1.3315830422
 H     -0.8927514535      2.9740782862      0.5381094976
 H      5.9118367588      2.0198692069      1.4088336111
 H      1.7783754689      3.7572461295      0.6952535857
 H      4.7155269563     -0.2247656622      4.7905643974
 H      1.5349945908      6.2358973727      4.7628454284
 H     -1.7730566294      4.3399260391      4.7481305066
 H      3.8576776239      3.9172694191      4.5791962939
 H      1.2859655189      1.6643693157      4.7299661780
 H      4.0213096783      0.2446481955     -0.3035263773
 H     -1.6516440670      6.3774957395     -0.1134714398
 H      0.0401111061      2.0013918378     -0.1347684525
 H      5.4562397510      2.5603103089     -0.0609320954
 H      2.3550055483      3.0362006986     -0.4545297722
 H      4.0126978314     -0.5111472309      3.4594694018
 H      0.8212425845      6.5395813843      3.4609197413
 H     -1.9426661604      3.3685826165      3.5183293442
 H      5.1075790097      3.1459088798      3.8441989384
 H      1.6740398606      2.6240996123      3.4186724359
 H     -0.1094434966      5.9187814750      6.9054503047
 H     -2.9664886595      4.9717733518      7.1232755569
 H      0.7611682994      1.6747508213      7.0051570615
 H      5.2957119574      0.5149736229      7.1454261870
 H      2.2669631805      1.4418851556      6.7589401567
 H      5.2868142456      5.4220653605      6.9848765282
 H      1.9012115679      0.2898605639      3.2146801039
 H      5.7083848609      1.0852060457      3.6479040262
 H      3.1948101907      4.0029103708      2.9903757136
 H     -1.4448517545      5.7867773464      3.5459954446
 H      1.9814674065      4.9674432929      3.2208096466
 H     -0.2237661633      1.9295628282      3.4335415686
 O      3.0636044157      0.3702776799     -0.1841391420
 O     -1.2132789232      7.0875303148      0.3926933125
 O     -0.8211243415      2.0602962799      0.3101622603
 O      5.7995154798      1.7929838582      0.4111109702
 O      2.1028032136      3.9319453930     -0.2085992001
 O      4.9658251213     -0.3789239515      3.8395538290
 O      1.7592623914      6.3209199360      3.8099709953
 O     -2.2246180446      4.2702470590      3.8911308985
 O      4.6873048900      4.0920401068      4.0988807864
 O      1.3842668180      1.7007895359      3.7330695301
 O      4.5940743833     -0.0472722468      6.8391325335
 O      0.5834498877      6.5566293379      6.7689870531
 O     -2.2643642392      4.3535333840      6.8712398979
 O      4.8861065461      4.5503710757      7.0218428416
 O      1.5380905290      2.0143269826      6.5637229663
 O      2.3898875767     -0.5524132998      3.2505866405
 O     -0.8084389870      6.5070117007      3.4563115294
 O     -1.2222542030      1.9727732188      3.4516714139
 O      6.0468739771      2.0464464844      3.5023991448
 O      2.2078166217      4.0227175472      2.8715258797
 H      4.8923937701     -0.9218049616      7.1377315024
 H      1.3063134346      6.2974070691      7.3380726562
 H     -2.7431536057      3.6622759802      6.4483137983
 H      5.2989381175      4.2189117440      6.2116506126
 H      2.2519429473     -0.9119824334      2.3499322591
 H     -1.2038429164      7.3373515321      3.6054756396
 H     -1.6259457618      1.5444694048      2.6833094077
 H      6.9859391095      2.0589712710      3.3961721950
60
# ORCA AIMD Position Step 137, t=68.50 fs, E_Pot=-1525.77011998 Hartree, Unit is Angstrom
 H      3.1315199397      0.7227289477      0.7196729558
 H     -0.9802340789      6.6313751217      1.3176360041
 H     -0.8805379387      2.9725014172      0.5100393626
 H      5.9041262287      2.0242973413      1.4018354719
 H      1.7729052613      3.7479245008      0.6809014261
 H      4.7148698189     -0.2326483837      4.7865035787
 H      1.5441818186      6.2330790201      4.7571859672
 H     -1.7730179313      4.3261061056      4.7421794699
 H      3.8606575827      3.9263845492      4.5778894919
 H      1.2906869146      1.6634148858      4.7254735235
 H      4.0228675465      0.2463169754     -0.2929934892
 H     -1.6582977935      6.3748537641     -0.1071489468
 H      0.0560272344      1.9973696024     -0.1279721985
 H      5.4774680985      2.5670302763     -0.0509539792
 H      2.3620709785      3.0268253259     -0.4547998632
 H      4.0089043608     -0.5133007079      3.4568719380
 H      0.8208110419      6.5236930278      3.4718136121
 H     -1.9417272303      3.3696236762      3.5230945116
 H      5.1127846634      3.1373004655      3.8507651286
 H      1.6651597940      2.6094420642      3.4209327565
 H     -0.1170509625      5.9316359533      6.9046267733
 H     -2.9715480199      4.9638250794      7.1346905720
 H      0.7742218676      1.6624375240      7.0118743481
 H      5.2781590462      0.5032886828      7.1428885554
 H      2.2729361345      1.4533502610      6.7546327626
 H      5.2892726896      5.4250974969      6.9879158787
 H      1.8974703088      0.2778040251      3.2203906679
 H      5.7193938182      1.0872450055      3.6551503129
 H      3.2084928969      3.9964062754      2.9860568473
 H     -1.4376323409      5.7890435279      3.5565892784
 H      1.9772451724      4.9762800138      3.2156387928
 H     -0.2302382347      1.9331675153      3.4351363755
 O      3.0698106873      0.3760041985     -0.1863410769
 O     -1.2119994678      7.0912255747      0.3921227783
 O     -0.8173465498      2.0612412460      0.3095915492
 O      5.7909320038      1.7890723628      0.4104148908
 O      2.0978271659      3.9250339548     -0.2116258940
 O      4.9636559205     -0.3818257787      3.8411371380
 O      1.7611980135      6.3205023804      3.8108104922
 O     -2.2214830121      4.2677025054      3.8915408922
 O      4.6853367555      4.0865975120      4.1003761516
 O      1.3857385244      1.6963430620      3.7332941355
 O      4.5909963419     -0.0474966604      6.8390537064
 O      0.5794680670      6.5539106628      6.7680809268
 O     -2.2618550296      4.3537975020      6.8710619279
 O      4.8858401933      4.5518758782      7.0245990271
 O      1.5394626006      2.0122974720      6.5614900103
 O      2.3896487953     -0.5575590867      3.2497944480
 O     -0.8059162362      6.5077119122      3.4586752152
 O     -1.2233540534      1.9709210580      3.4563021694
 O      6.0436872413      2.0447456975      3.5053518911
 O      2.2053656608      4.0223856600      2.8659600576
 H      4.8833688643     -0.9107310769      7.1488936141
 H      1.2867586506      6.2903110738      7.3486388008
 H     -2.7328389860      3.6607820854      6.4585097400
 H      5.2893881911      4.2267939784      6.2163945098
 H      2.2489225490     -0.9170174442      2.3370839880
 H     -1.2016242672      7.3401496805      3.5929116196
 H     -1.6210203926      1.5497572646      2.6667771128
 H      6.9898881401      2.0680256234      3.3908788290
60
# ORCA AIMD Position Step 138, t=69.00 fs, E_Pot=-1525.76878110 Hartree, Unit is Angstrom
 H      3.1399090063      0.7298642935      0.6966304928
 H     -0.9817532186      6.6452278456      1.2979446321
 H     -0.8685780880      2.9762282463      0.4830257480
 H      5.8952989668      2.0284169275      1.3907071702
 H      1.7674311439      3.7394946442      0.6690793278
 H      4.7147444760     -0.2409889604      4.7824920824
 H      1.5533410261      6.2303086277      4.7528971836
 H     -1.7724021225      4.3118332270      4.7379207356
 H      3.8630244042      3.9349109903      4.5777947451
 H      1.2963119915      1.6637609881      4.7204920802
 H      4.0262427479      0.2479675691     -0.2836320783
 H     -1.6645505634      6.3724325838     -0.1001782913
 H      0.0716836708      1.9935421739     -0.1210577232
 H      5.4979025553      2.5759221462     -0.0409883471
 H      2.3700345409      3.0161505088     -0.4559974528
 H      4.0070602191     -0.5144961103      3.4550592906
 H      0.8222317508      6.5072979708      3.4834011201
 H     -1.9397332107      3.3710554517      3.5288858657
 H      5.1164236302      3.1332501196      3.8589511791
 H      1.6572843401      2.5968218057      3.4236297297
 H     -0.1275075531      5.9413577759      6.9044865549
 H     -2.9767254321      4.9563001144      7.1460092517
 H      0.7857786422      1.6488514396      7.0200258259
 H      5.2648911650      0.4957666462      7.1420775690
 H      2.2821694374      1.4617663780      6.7516996648
 H      5.2917955952      5.4302145501      6.9917707313
 H      1.8927001160      0.2692323889      3.2271403707
 H      5.7302381915      1.0886472784      3.6616302133
 H      3.2204171171      3.9905724431      2.9810319366
 H     -1.4335553353      5.7877347286      3.5673713024
 H      1.9732827812      4.9843433343      3.2106117509
 H     -0.2360975218      1.9358644013      3.4357027986
 O      3.0759573517      0.3817459625     -0.1884882926
 O     -1.2106465276      7.0947316263      0.3919037957
 O     -0.8135276312      2.0618532877      0.3089709358
 O      5.7824236828      1.7850218183      0.4100061738
 O      2.0928178131      3.9181115159     -0.2147204187
 O      4.9613767920     -0.3846862331      3.8427381607
 O      1.7630210801      6.3201550937      3.8115783997
 O     -2.2184505127      4.2652696711      3.8918556482
 O      4.6834966578      4.0809799157      4.1017704311
 O      1.3870912851      1.6918262369      3.7335474561
 O      4.5876278944     -0.0478519726      6.8388243776
 O      0.5755624958      6.5514311925      6.7669873109
 O     -2.2591422362      4.3543106736      6.8710487320
 O      4.8855389855      4.5533588334      7.0274516350
 O      1.5407305941      2.0105133317      6.5590580017
 O      2.3895069029     -0.5630032302      3.2487960942
 O     -0.8030656198      6.5083313807      3.4608987803
 O     -1.2246235175      1.9690531689      3.4609393745
 O      6.0403546228      2.0429505985      3.5082623215
 O      2.2030073057      4.0219799924      2.8603794167
 H      4.8743250424     -0.9014021641      7.1603104490
 H      1.2690266003      6.2820829511      7.3609375565
 H     -2.7252364589      3.6550256472      6.4659429742
 H      5.2800023481      4.2328993029      6.2183249991
 H      2.2461840725     -0.9219972345      2.3256392628
 H     -1.2024564201      7.3475998458      3.5811617633
 H     -1.6142594775      1.5549221563      2.6500649244
 H      6.9962692116      2.0768455704      3.3856575064
60
# ORCA AIMD Position Step 139, t=69.50 fs, E_Pot=-1525.77058942 Hartree, Unit is Angstrom
 H      3.1474146266      0.7385235989      0.6768499023
 H     -0.9844558091      6.6613013012      1.2738620093
 H     -0.8570086840      2.9857623612      0.4570828810
 H      5.8855369557      2.0321081874      1.3762173950
 H      1.7616276071      3.7318076562      0.6607200911
 H      4.7149634457     -0.2496828420      4.7791647369
 H      1.5624115681      6.2274848361      4.7507329619
 H     -1.7709164975      4.2972801410      4.7360540304
 H      3.8640858871      3.9426489759      4.5792795418
 H      1.3027287888      1.6653390381      4.7155699506
 H      4.0318713544      0.2494410905     -0.2757232534
 H     -1.6701975378      6.3706582855     -0.0924200309
 H      0.0863730185      1.9898069148     -0.1137148606
 H      5.5174415996      2.5872822420     -0.0315025095
 H      2.3786961543      3.0049209004     -0.4579342242
 H      4.0072146602     -0.5147314591      3.4540789100
 H      0.8249750069      6.4906667474      3.4953733591
 H     -1.9366603183      3.3724688490      3.5353502138
 H      5.1183750817      3.1336437811      3.8687433143
 H      1.6507042469      2.5870236471      3.4264178663
 H     -0.1412451885      5.9477320039      6.9050320971
 H     -2.9816899155      4.9489051797      7.1570893293
 H      0.7959513207      1.6340758992      7.0295189552
 H      5.2572664356      0.4936637300      7.1435821485
 H      2.2947420207      1.4672096538      6.7500997952
 H      5.2941639349      5.4368996346      6.9964649661
 H      1.8868914882      0.2641614960      3.2348426514
 H      5.7407201023      1.0889861255      3.6673876005
 H      3.2293677841      3.9855412081      2.9752321030
 H     -1.4325104719      5.7830656054      3.5782981767
 H      1.9698822102      4.9910886510      3.2055864388
 H     -0.2409678761      1.9376732102      3.4352920315
 O      3.0820211836      0.3874528222     -0.1907068907
 O     -1.2092565268      7.0980581014      0.3919418500
 O     -0.8096156051      2.0621070511      0.3082803597
 O      5.7739871310      1.7808206401      0.4098654550
 O      2.0878089927      3.9111418315     -0.2179522680
 O      4.9589975501     -0.3875137614      3.8443132676
 O      1.7647642477      6.3198725279      3.8122443790
 O     -2.2155431598      4.2629666186      3.8920523779
 O      4.6818313472      4.0752080642      4.1030391451
 O      1.3883157353      1.6871936297      3.7338171943
 O      4.5838754456     -0.0483647647      6.8383928108
 O      0.5717576804      6.5492024502      6.7657039232
 O     -2.2562434435      4.3551005791      6.8712112502
 O      4.8852022659      4.5548645351      7.0304305550
 O      1.5418831433      2.0089651966      6.5564359956
 O      2.3894549293     -0.5687715430      3.2475379678
 O     -0.7999166375      6.5089068481      3.4629959939
 O     -1.2261096447      1.9671327875      3.4655180060
 O      6.0369804147      2.0410935192      3.5111172334
 O      2.2008022398      4.0215241137      2.8548018982
 H      4.8654037657     -0.8946474357      7.1722324141
 H      1.2531718857      6.2727634534      7.3750037670
 H     -2.7204103887      3.6448565787      6.4705958464
 H      5.2710231818      4.2370280660      6.2169346867
 H      2.2438591931     -0.9265083844      2.3165067142
 H     -1.2059687329      7.3588764835      3.5700489158
 H     -1.6052812944      1.5604955331      2.6341584590
 H      7.0036613677      2.0853892936      3.3806724643
60
# ORCA AIMD Position Step 140, t=70.00 fs, E_Pot=-1525.77487187 Hartree, Unit is Angstrom
 H      3.1539836934      0.7495903290      0.6623666136
 H     -0.9877837905      6.6786924518      1.2474068642
 H     -0.8458794959      3.0005300445      0.4320103401
 H      5.8750667014      2.0353279127      1.3595336402
 H      1.7553117990      3.7247458333      0.6563734605
 H      4.7153488245     -0.2586324356      4.7771361858
 H      1.5713834220      6.2245336579      4.7512099807
 H     -1.7684313210      4.2826078290      4.7369895508
 H      3.8633915749      3.9494603697      4.5825721513
 H      1.3098172575      1.6680528489      4.7113016465
 H      4.0398746726      0.2506366832     -0.2694533772
 H     -1.6750857329      6.3698868642     -0.0838182771
 H      0.0995289086      1.9860787414     -0.1057099675
 H      5.5361412727      2.6009671984     -0.0227438520
 H      2.3877985270      2.9939335848     -0.4603749424
 H      4.0092690912     -0.5140371488      3.4539102601
 H      0.8283709702      6.4740851447      3.5073904995
 H     -1.9324838595      3.3734292992      3.5421037664
 H      5.1186179934      3.1381183339      3.8800600063
 H      1.6456418363      2.5806352652      3.4289853838
 H     -0.1581272041      5.9510196921      6.9061644542
 H     -2.9861338584      4.9413573156      7.1677771825
 H      0.8051124281      1.6183185048      7.0400935260
 H      5.2556485615      0.4973721653      7.1475621258
 H      2.3101554429      1.4701569291      6.7496483231
 H      5.2961179389      5.4444836738      7.0019835442
 H      1.8802594295      0.2622235773      3.2434078766
 H      5.7506840407      1.0879044592      3.6724641931
 H      3.2344747771      3.9814127997      2.9686217134
 H     -1.4340477116      5.7756508940      3.5892566512
 H      1.9672868024      4.9960905734      3.2004604316
 H     -0.2445729306      1.9386333670      3.4339928418
 O      3.0879957704      0.3930745448     -0.1931132475
 O     -1.2078743281      7.1012379174      0.3921058834
 O     -0.8055727938      2.0620438724      0.3075182015
 O      5.7656067014      1.7764802682      0.4099344841
 O      2.0828291538      3.9040832768     -0.2213697675
 O      4.9565366069     -0.3903150085      3.8458241717
 O      1.7664655553      6.3196459772      3.8127948876
 O     -2.2127732477      4.2608139311      3.8921282384
 O      4.6803660164      4.0693140703      4.1041706905
 O      1.3894067373      1.6824142340      3.7340855084
 O      4.5797117601     -0.0490280240      6.8377386723
 O      0.5680627850      6.5471989416      6.7642518426
 O     -2.2532041948      4.3561469061      6.8715342962
 O      4.8848440610      4.5564329681      7.0335412165
 O      1.5429291292      2.0076106975      6.5536523802
 O      2.3894749476     -0.5748583323      3.2459847892
 O     -0.7965383056      6.5094878029      3.4649880156
 O     -1.2278433050      1.9651300917      3.4699814084
 O      6.0336682607      2.0392060820      3.5139027837
 O      2.1987925309      4.0210363572      2.8492413635
 H      4.8566846761     -0.8909628797      7.1848368755
 H      1.2389273236      6.2625030393      7.3906003084
 H     -2.7179557802      3.6308766108      6.4728754950
 H      5.2625017384      4.2392072145      6.2121423439
 H      2.2420307934     -0.9302463109      2.3103133327
 H     -1.2115008880      7.3725328626      3.5593478809
 H     -1.5938576275      1.5668899566      2.6198810774
 H      7.0106166902      2.0935712010      3.3761059957
60
# ORCA AIMD Position Step 141, t=70.50 fs, E_Pot=-1525.77924478 Hartree, Unit is Angstrom
 H      3.1595908241      0.7636790209      0.6544834611
 H     -0.9909723835      6.6961685563      1.2213302998
 H     -0.8351848945      3.0190451481      0.4075075390
 H      5.8641487432      2.0381210575      1.3421818560
 H      1.7484899162      3.7182528077      0.6560946158
 H      4.7157536979     -0.2677601996      4.7769166661
 H      1.5803038980      6.2214219106      4.7545170086
 H     -1.7650154731      4.2679677180      4.7407717924
 H      3.8608224212      3.9552711773      4.5877098481
 H      1.3174586536      1.6717858197      4.7082611469
 H      4.0500347969      0.2515302472     -0.2649009375
 H     -1.6791357765      6.3703680258     -0.0744132200
 H      0.1107664763      1.9822861613     -0.0968994293
 H      5.5541667536      2.6163907614     -0.0147526878
 H      2.3970604643      2.9839339400     -0.4630689640
 H      4.0129783799     -0.5124735029      3.4544655696
 H      0.8316657072      6.4578334264      3.5191125352
 H     -1.9271841643      3.3735229071      3.5487630112
 H      5.1172435106      3.1460521990      3.8927546239
 H      1.6422237168      2.5779387099      3.4310973580
 H     -0.1774866244      5.9518864338      6.9076926882
 H     -2.9898073546      4.9334176794      7.1779277646
 H      0.8138150901      1.6018921177      7.0513532462
 H      5.2592778352      0.5062979506      7.1536780598
 H      2.3274609351      1.4713662821      6.7500515513
 H      5.2973980968      5.4522435646      7.0082720039
 H      1.8732094612      0.2627362299      3.2527362256
 H      5.7600230815      1.0851577671      3.6768901227
 H      3.2352090173      3.9782484778      2.9611951358
 H     -1.4374750017      5.7663809511      3.6000712184
 H      1.9656734986      4.9990585978      3.1951741448
 H     -0.2467757719      1.9388015270      3.4319363883
 O      3.0938939196      0.3985727939     -0.1957843728
 O     -1.2065532202      7.1043315079      0.3922249376
 O     -0.8013763900      2.0617616464      0.3066949209
 O      5.7572582953      1.7720347133      0.4101195673
 O      2.0778963950      3.8968936292     -0.2249910329
 O      4.9540197182     -0.3930938353      3.8472432832
 O      1.7681647632      6.3194637916      3.8132370032
 O     -2.2101400521      4.2588317285      3.8921032839
 O      4.6790979634      4.0633421697      4.1051696017
 O      1.3903644313      1.6774781105      3.7343305502
 O      4.5751853998     -0.0497995129      6.8368804220
 O      0.5644695920      6.5453634825      6.7626729447
 O     -2.2500883344      4.3573890706      6.8719826835
 O      4.8844903607      4.5580934633      7.0367629971
 O      1.5438946125      2.0063831682      6.5507507296
 O      2.3895403559     -0.5812300287      3.2441215919
 O     -0.7930240488      6.5101232424      3.4668987245
 O     -1.2298358414      1.9630232552      3.4742842121
 O      6.0305083760      2.0373149809      3.5166066723
 O      2.1970022275      4.0205293436      2.8437075782
 H      4.8481657723     -0.8904147781      7.1981798670
 H      1.2257758388      6.2515491518      7.4072498457
 H     -2.7171181866      3.6142827837      6.4734968362
 H      5.2542994221      4.2396876547      6.2043172981
 H      2.2407309280     -0.9330261790      2.3073792952
 H     -1.2182483205      7.3868368356      3.5488499105
 H     -1.5799283241      1.5743835902      2.6078399410
 H      7.0158555917      2.1012784843      3.3721304016
60
# ORCA AIMD Position Step 142, t=71.00 fs, E_Pot=-1525.78129910 Hartree, Unit is Angstrom
 H      3.1642193971      0.7809471754      0.6533993032
 H     -0.9930796125      6.7122258728      1.1989897330
 H     -0.8248994883      3.0392999381      0.3832909921
 H      5.8530587934      2.0406167168      1.3259402282
 H      1.7413626052      3.7123433191      0.6594345861
 H      4.7160811011     -0.2770184151      4.7788298624
 H      1.5892713164      6.2181645690      4.7604777692
 H     -1.7609328204      4.2535094620      4.7470745373
 H      3.8566130833      3.9600608140      4.5945238764
 H      1.3255442995      1.6764081495      4.7069207250
 H      4.0618347525      0.2521801498     -0.2620380314
 H     -1.6823558748      6.3722176721     -0.0643411790
 H      0.1198995613      1.9783660740     -0.0872324785
 H      5.5717229211      2.6326220854     -0.0074218691
 H      2.4062082627      2.9755372707     -0.4657768483
 H      4.0179561778     -0.5101265711      3.4555935230
 H      0.8341037980      6.4421663760      3.5302342389
 H     -1.9207580905      3.3724136262      3.5549786825
 H      5.1144765010      3.1565417060      3.9066160415
 H      1.6404682609      2.5788467374      3.4326234222
 H     -0.1982872437      5.9512451244      6.9093630505
 H     -2.9925406413      4.9249156719      7.1874213908
 H      0.8226901140      1.5851798524      7.0628170930
 H      5.2665335176      0.5190668757      7.1611982356
 H      2.3454693097      1.4717172718      6.7509579569
 H      5.2977802520      5.4594926735      7.0152407085
 H      1.8662682456      0.2648227960      3.2627107636
 H      5.7686794019      1.0806492767      3.6806760960
 H      3.2313705709      3.9760672249      2.9529728674
 H     -1.4419870148      5.7562588707      3.6105256826
 H      1.9651493838      4.9998421191      3.1897108696
 H     -0.2475948516      1.9382482643      3.4293000393
 O      3.0997462212      0.4039325363     -0.1987344233
 O     -1.2053521889      7.1074248320      0.3920961182
 O     -0.7970172862      2.0613905344      0.3058258392
 O      5.7489149803      1.7675346713      0.4103020899
 O      2.0730161608      3.8895344893     -0.2288016795
 O      4.9514785867     -0.3958507138      3.8485586928
 O      1.7698989084      6.3193119789      3.8135986205
 O     -2.2076292578      4.2570357120      3.8920186966
 O      4.6779939749      4.0573510957      4.1060575575
 O      1.3911944142      1.6724000136      3.7345298245
 O      4.5704043500     -0.0506153504      6.8358702065
 O      0.5609555859      6.5436189738      6.7610234050
 O     -2.2469648404      4.3587424653      6.8725110929
 O      4.8841739214      4.5598617304      7.0400533512
 O      1.5448160219      2.0052039261      6.5477834308
 O      2.3896202419     -0.5878325037      3.2419547171
 O     -0.7894751685      6.5108521006      3.4687508326
 O     -1.2320782358      1.9607985310      3.4783936298
 O      6.0275697922      2.0354382314      3.5192198201
 O      2.1954382276      4.0200099341      2.8382063740
 H      4.8397620221     -0.8926307378      7.2121701533
 H      1.2130629135      6.2402170257      7.4243096467
 H     -2.7169812415      3.5965852032      6.4733095236
 H      5.2461353644      4.2389004629      6.1942091838
 H      2.2399404844     -0.9347865455      2.3077083995
 H     -1.2254000752      7.4000872630      3.5384020001
 H     -1.5635983125      1.5831195613      2.5983991863
 H      7.0183865747      2.1083902395      3.3688872513
60
# ORCA AIMD Position Step 143, t=71.50 fs, E_Pot=-1525.78030625 Hartree, Unit is Angstrom
 H      3.1678563654      0.8010280530      0.6581546291
 H     -0.9931141835      6.7253224953      1.1838577989
 H     -0.8150029332      3.0591883629      0.3591666081
 H      5.8420584767      2.0429941403      1.3126370333
 H      1.7342871311      3.7070900187      0.6655343138
 H      4.7162953795     -0.2863935234      4.7829536310
 H      1.5984160904      6.2148234161      4.7685825994
 H     -1.7565985057      4.2393890870      4.7552707452
 H      3.8513014813      3.9638439964      4.6026657551
 H      1.3339813119      1.6817821425      4.7075738115
 H      4.0745488557      0.2527180551     -0.2607456777
 H     -1.6848484351      6.3753988074     -0.0538228519
 H      0.1269433741      1.9742574562     -0.0767466655
 H      5.5889927755      2.6485454720     -0.0005740610
 H      2.4150029310      2.9691790689     -0.4682905604
 H      4.0236882362     -0.5071022235      3.4570871192
 H      0.8350267741      6.4272963786      3.5405198170
 H     -1.9132317183      3.3698957730      3.5604660027
 H      5.1106977010      3.1683816567      3.9213727892
 H      1.6402918902      2.5829091810      3.4335408102
 H     -0.2193360299      5.9500787415      6.9108960201
 H     -2.9942558073      4.9157625595      7.1961766335
 H      0.8323467522      1.5685927944      7.0739774376
 H      5.2754114959      0.5339221160      7.1692101377
 H      2.3629635481      1.4720675810      6.7520076320
 H      5.2971014115      5.4656533367      7.0227727050
 H      1.8600034634      0.2675423682      3.2731942512
 H      5.7766381187      1.0744468590      3.6838095887
 H      3.2230872656      3.9748446030      2.9439994886
 H     -1.4467813174      5.7462545432      3.6203905587
 H      1.9657511477      4.9984289009      3.1840948716
 H     -0.2471962625      1.9370544301      3.4263088429
 O      3.1055957035      0.4091668428     -0.2019103419
 O     -1.2043274341      7.1106159101      0.3915148066
 O     -0.7924986294      2.0610667083      0.3049262746
 O      5.7405526424      1.7630396048      0.4103561536
 O      2.0681818613      3.8819752540     -0.2327595190
 O      4.9489493730     -0.3985826162      3.8497774426
 O      1.7716976211      6.3191752341      3.8139243478
 O     -2.2052148366      4.2554333631      3.8919304923
 O      4.6769922161      4.0514165413      4.1068715350
 O      1.3919069972      1.6672185977      3.7346648640
 O      4.5655048993     -0.0514101088      6.8347801840
 O      0.5574898721      6.5418819245      6.7593654903
 O     -2.2438961446      4.3601154962      6.8730731972
 O      4.8839280407      4.5617396871      7.0433560925
 O      1.5457329645      2.0039939641      6.5448049670
 O      2.3896843843     -0.5945993455      3.2395120973
 O     -0.7859875673      6.5116989479      3.4705634243
 O     -1.2345425101      1.9584498467      3.4822899209
 O      6.0248967862      2.0335826580      3.5217373945
 O      2.1940903860      4.0194794424      2.8327397610
 H      4.8313222749     -0.8968792895      7.2265753570
 H      1.2001140097      6.2288526408      7.4410658964
 H     -2.7166410028      3.5793227230      6.4731408240
 H      5.2376595295      4.2373870460      6.1828089124
 H      2.2395890594     -0.9355887954      2.3109856825
 H     -1.2322358873      7.4108311930      3.5279185671
 H     -1.5451231653      1.5931138698      2.5916693795
 H      7.0175654082      2.1147959517      3.3664739664
60
# ORCA AIMD Position Step 144, t=72.00 fs, E_Pot=-1525.77742798 Hartree, Unit is Angstrom
 H      3.1705055865      0.8231228450      0.6669296639
 H     -0.9902788826      6.7343019038      1.1786235589
 H     -0.8054908908      3.0768203035      0.3350496677
 H      5.8313583930      2.0454124164      1.3038602588
 H      1.7277110819      3.7025950648      0.6732864491
 H      4.7164222771     -0.2959034190      4.7891007506
 H      1.6078752837      6.2114974675      4.7780773745
 H     -1.7525105365      4.2257727655      4.7645505759
 H      3.8456216928      3.9666519684      4.6116667754
 H      1.3426937204      1.6877644348      4.7102804865
 H      4.0873575229      0.2533280254     -0.2608388211
 H     -1.6868078748      6.3797141554     -0.0431410656
 H      0.1321066205      1.9698947979     -0.0655583223
 H      5.6060994317      2.6630283603      0.0059705560
 H      2.4232618835      2.9650896879     -0.4704472978
 H      4.0295586717     -0.5035184168      3.4586975104
 H      0.8339714454      6.4133833369      3.5498305868
 H     -1.9046714013      3.3659303522      3.5650255324
 H      5.1064527683      3.1800755689      3.9367062583
 H      1.6415315732      2.5893872872      3.4339139070
 H     -0.2394745894      5.9492970959      6.9120191183
 H     -2.9949694892      4.9059556386      7.2041585463
 H      0.8432947035      1.5525289535      7.0843535259
 H      5.2839626448      0.5491039345      7.1768205133
 H      2.3788605246      1.4731561928      6.7528690141
 H      5.2952754444      5.4703074662      7.0307334246
 H      1.8549537968      0.2699987246      3.2840304917
 H      5.7839149990      1.0667763674      3.6862562058
 H      3.2108271733      3.9745130007      2.9343436075
 H     -1.4511396519      5.7372043388      3.6294479559
 H      1.9674469185      4.9949382325      3.1783881139
 H     -0.2458627860      1.9353073724      3.4232334559
 O      3.1114898792      0.4143124452     -0.2052091104
 O     -1.2035171506      7.1139886161      0.3903298973
 O     -0.7878345696      2.0609129896      0.3040096521
 O      5.7321545415      1.7586115496      0.4101711354
 O      2.0633775894      3.8741964520     -0.2368039549
 O      4.9464710474     -0.4012835054      3.8509258888
 O      1.7735787974      6.3190381749      3.8142682493
 O     -2.2028625943      4.2540213490      3.8919007519
 O      4.6760084877      4.0456316794      4.1076592473
 O      1.3925157732      1.6619914453      3.7347259797
 O      4.5606221673     -0.0521320208      6.8336877345
 O      0.5540390747      6.5400737664      6.7577598963
 O     -2.2409306568      4.3614223447      6.8736276968
 O      4.8837809752      4.5637169934      7.0466108692
 O      1.5466829178      2.0026826248      6.5418662746
 O      2.3897075802     -0.6014591360      3.2368427886
 O     -0.7826433373      6.5126735573      3.4723508314
 O     -1.2371850303      1.9559781374      3.4859665079
 O      6.0225080104      2.0317430877      3.5241592247
 O      2.1929306833      4.0189340375      2.8273059532
 H      4.8226590302     -0.9022094539      7.2410575492
 H      1.1863304613      6.2177966873      7.4568236278
 H     -2.7153223528      3.5638559872      6.4736923309
 H      5.2285257837      4.2357243409      6.1711894827
 H      2.2395551654     -0.9356124706      2.3165823143
 H     -1.2381796144      7.4179749160      3.5173749732
 H     -1.5248875307      1.6042679419      2.5875066289
 H      7.0131170633      2.1204115777      3.3649358856
60
# ORCA AIMD Position Step 145, t=72.50 fs, E_Pot=-1525.77427796 Hartree, Unit is Angstrom
 H      3.1722069096      0.8461950070      0.6775209260
 H     -0.9842476811      6.7388362454      1.1842220350
 H     -0.7963763338      3.0906897424      0.3109505723
 H      5.8210826183      2.0479175713      1.3006438862
 H      1.7221001997      3.6989591149      0.6815104153
 H      4.7165374040     -0.3055883272      4.7968460543
 H      1.6177687233      6.2083083269      4.7880809650
 H     -1.7491773507      4.2128344937      4.7740504487
 H      3.8403743858      3.9685189740      4.6210120918
 H      1.3516187794      1.6942054184      4.7148504696
 H      4.0994594419      0.2542198050     -0.2620948388
 H     -1.6885079180      6.3848157874     -0.0326104631
 H      0.1357736283      1.9652023527     -0.0538487019
 H      5.6230938600      2.6750566432      0.0123506651
 H      2.4308751445      2.9632873731     -0.4721377062
 H      4.0348935399     -0.4994958749      3.4601554328
 H      0.8307456892      6.4005339925      3.5581388993
 H     -1.8951896576      3.3606552349      3.5685509474
 H      5.1024262288      3.1899166492      3.9522795444
 H      1.6439750178      2.5973675942      3.4338608646
 H     -0.2577125055      5.9496487313      6.9124893819
 H     -2.9947878532      4.8955743193      7.2113820646
 H      0.8558931332      1.5373386542      7.0935340977
 H      5.2905576347      0.5630922458      7.1832791394
 H      2.3923083488      1.4755549445      6.7532605641
 H      5.2923003028      5.4732270497      7.0389805172
 H      1.8515793506      0.2714144772      3.2950493388
 H      5.7905404622      1.0579924111      3.6879660331
 H      3.1954219763      3.9749631705      2.9240998062
 H     -1.4544714074      5.7297601559      3.6375095477
 H      1.9701401194      4.9896119576      3.1726870129
 H     -0.2439475532      1.9330970971      3.4203840025
 O      3.1174726335      0.4194192317     -0.2085060152
 O     -1.2029248468      7.1175841433      0.3885030432
 O     -0.7830490075      2.0610286485      0.3030875034
 O      5.7237141295      1.7543123957      0.4096741815
 O      2.0585815461      3.8661920812     -0.2408665712
 O      4.9440833417     -0.4039453542      3.8520466468
 O      1.7755455103      6.3188863842      3.8146856254
 O     -2.2005343244      4.2527848860      3.8919889649
 O      4.6749460320      4.0401028618      4.1084726186
 O      1.3930360202      1.6567877119      3.7347154958
 O      4.5558713705     -0.0527485953      6.8326644365
 O      0.5505716017      6.5381282888      6.7562599055
 O     -2.2380996264      4.3625903854      6.8741411954
 O      4.8837520404      4.5657731152      7.0497613307
 O      1.5476982792      2.0012128326      6.5390107360
 O      2.3896725583     -0.6083409971      3.2340152485
 O     -0.7795066231      6.5137720969      3.4741224542
 O     -1.2399511352      1.9533904623      3.4894297490
 O      6.0203970604      2.0299031659      3.5264897194
 O      2.1919117010      4.0183652343      2.8218992959
 H      4.8135814410     -0.9076054700      7.2552254846
 H      1.1712529725      6.2073549982      7.4709781895
 H     -2.7124342314      3.5512534974      6.4754915727
 H      5.2184467620      4.2344617380      6.1603675089
 H      2.2396684238     -0.9351434473      2.3235768520
 H     -1.2428219601      7.4208203709      3.5067931231
 H     -1.5033776585      1.6163853282      2.5855214523
 H      7.0051393234      2.1251928946      3.3642615770
60
# ORCA AIMD Position Step 146, t=73.00 fs, E_Pot=-1525.77162485 Hartree, Unit is Angstrom
 H      3.1730458434      0.8691708709      0.6877742829
 H     -0.9752991283      6.7395750713      1.1994451289
 H     -0.7876866813      3.0997305972      0.2869472307
 H      5.8112480221      2.0503647356      1.3032443180
 H      1.7178782391      3.6962573436      0.6890998322
 H      4.7167466282     -0.3154981052      4.8055915982
 H      1.6281821165      6.2053839876      4.7977026876
 H     -1.7470574890      4.2007489745      4.7829636069
 H      3.8363043102      3.9694760960      4.6302122325
 H      1.3606998956      1.7009478250      4.7208698303
 H      4.1101623640      0.2556023288     -0.2642799040
 H     -1.6902760700      6.3902382617     -0.0225417797
 H      0.1384732109      1.9600903777     -0.0418452302
 H      5.6399614730      2.6838225330      0.0186438990
 H      2.4378165600      2.9635841383     -0.4733093735
 H      4.0390243881     -0.4951480397      3.4612008626
 H      0.8254586713      6.3888098076      3.5655240125
 H     -1.8849441210      3.3543672692      3.5710236755
 H      5.0993590277      3.1961750834      3.9677831129
 H      1.6473900307      2.6058822297      3.4335188346
 H     -0.2733012093      5.9516819926      6.9121053897
 H     -2.9938947212      4.8847695768      7.2179106583
 H      0.8703243027      1.5232983763      7.1012076811
 H      5.2939846244      0.5747092899      7.1880263730
 H      2.4027314887      1.4796551040      6.7529606692
 H      5.2882584673      5.4743874472      7.0473728081
 H      1.8502326507      0.2711723246      3.3060735155
 H      5.7965431531      1.0485322895      3.6888835091
 H      3.1780830255      3.9760478806      2.9133897351
 H     -1.4563279823      5.7243767211      3.6444269269
 H      1.9736759466      4.9828002342      3.1671178940
 H     -0.2418224661      1.9305126355      3.4180997104
 O      3.1235780350      0.4245393073     -0.2116802810
 O     -1.2025125310      7.1213895215      0.3861309296
 O     -0.7781738156      2.0614861468      0.3021700174
 O      5.7152357855      1.7502032289      0.4088455139
 O      2.0537690522      3.8579707375     -0.2448802339
 O      4.9418239465     -0.4065594432      3.8531925903
 O      1.7775852121      6.3187071505      3.8152259080
 O     -2.1981916970      4.2516991198      3.8922453554
 O      4.6737083839      4.0349381808      4.1093602977
 O      1.3934833888      1.6516804366      3.7346483455
 O      4.5513399611     -0.0532448083      6.8317697505
 O      0.5470601220      6.5359954729      6.7549075972
 O     -2.2354170789      4.3635636676      6.8745890424
 O      4.8838496569      4.5678792569      7.0527607506
 O      1.5488051459      1.9995436021      6.5362716999
 O      2.3895712705     -0.6151788146      3.2311134850
 O     -0.7766222043      6.5149783081      3.4758831619
 O     -1.2427804509      1.9506988029      3.4926980576
 O      6.0185336959      2.0280374180      3.5287374585
 O      2.1909654536      4.0177604896      2.8165103485
 H      4.8039232445     -0.9121193131      7.2686884018
 H      1.1545945333      6.1977772094      7.4830644896
 H     -2.7075830568      3.5422469362      6.4788804880
 H      5.2072247375      4.2340770397      6.1512059616
 H      2.2397167552     -0.9345496387      2.3308088088
 H     -1.2459280576      7.4190640353      3.4962255518
 H     -1.4811479885      1.6291938525      2.5851020261
 H      6.9940979748      2.1291460403      3.3643799594
60
# ORCA AIMD Position Step 147, t=73.50 fs, E_Pot=-1525.76961657 Hartree, Unit is Angstrom
 H      3.1731494367      0.8910841014      0.6958587582
 H     -0.9642027791      6.7378660758      1.2214525884
 H     -0.7794599752      3.1033145251      0.2631566557
 H      5.8017684972      2.0523968231      1.3111056976
 H      1.7153867062      3.6945263060      0.6951243412
 H      4.7171639678     -0.3256795343      4.8146513598
 H      1.6391594579      6.2028445879      4.8061381870
 H     -1.7465184771      4.1896823940      4.7906187254
 H      3.8340056821      3.9695514048      4.6388598737
 H      1.3698786952      1.7078263746      4.7277613963
 H      4.1189466033      0.2576617155     -0.2671697482
 H     -1.6924541358      6.3954584571     -0.0132038311
 H      0.1408306618      1.9544548197     -0.0297978129
 H      5.6566382151      2.6887696050      0.0248626545
 H      2.4441494580      2.9656027597     -0.4739660917
 H      4.0413682675     -0.4905721013      3.4616191140
 H      0.8184987306      6.3782405843      3.5721512825
 H     -1.8741303606      3.3474825494      3.5724979123
 H      5.0979036017      3.1973954617      3.9829886650
 H      1.6515467903      2.6140063254      3.4330173567
 H     -0.2857658767      5.9557375360      6.9107117498
 H     -2.9925321826      4.8737476086      7.2238498646
 H      0.8865850046      1.5105920981      7.1071824634
 H      5.2934469791      0.5831340228      7.1906940202
 H      2.4098449533      1.4856721203      6.7518107888
 H      5.2833123429      5.4739668674      7.0557776876
 H      1.8511448066      0.2688332329      3.3169257638
 H      5.8019360067      1.0388616205      3.6889586425
 H      3.1603823635      3.9775891529      2.9023598100
 H     -1.4564000893      5.7213216839      3.6500956446
 H      1.9778509508      4.9749440858      3.1618320219
 H     -0.2398324813      1.9276384010      3.4167353139
 O      3.1298267158      0.4297192896     -0.2146309991
 O     -1.2022103428      7.1253514029      0.3834106821
 O     -0.7732461049      2.0623313081      0.3012663350
 O      5.7067334231      1.7463428338      0.4077208261
 O      2.0489146987      3.8495553992     -0.2487855472
 O      4.9397248406     -0.4091176000      3.8544191835
 O      1.7796715390      6.3184897566      3.8159279170
 O     -2.1957993874      4.2507319917      3.8927068520
 O      4.6722142882      4.0302287820      4.1103605600
 O      1.3938731206      1.6467401969      3.7345500478
 O      4.5470866487     -0.0536181889      6.8310482161
 O      0.5434828304      6.5336428797      6.7537317253
 O     -2.2328814713      4.3643044745      6.8749553738
 O      4.8840709637      4.5700000239      7.0555752680
 O      1.5500229197      1.9976509380      6.5336711092
 O      2.3894046577     -0.6219151031      3.2282299510
 O     -0.7740153593      6.5162639458      3.4776340214
 O     -1.2456122222      1.9479184000      3.4957996510
 O      6.0168656694      2.0261139703      3.5309145612
 O      2.1900042995      4.0171038147      2.8111262511
 H      4.7935616861     -0.9149639229      7.2811008536
 H      1.1362511047      6.1892427935      7.4927870817
 H     -2.7005664076      3.5372229376      6.4840214256
 H      5.1947627407      4.2349504095      6.1443560579
 H      2.2394622216     -0.9342383257      2.3369840003
 H     -1.2474413765      7.4127850951      3.4857406861
 H     -1.4587814846      1.6423752492      2.5854621831
 H      6.9808120777      2.1323346894      3.3651594930
60
# ORCA AIMD Position Step 148, t=74.00 fs, E_Pot=-1525.76856918 Hartree, Unit is Angstrom
 H      3.1726726374      0.9111521519      0.7003806325
 H     -0.9519540835      6.7352670581      1.2467717993
 H     -0.7717407649      3.1012321719      0.2397068718
 H      5.7924819949      2.0534970941      1.3230326981
 H      1.7148634427      3.6937600194      0.6988896499
 H      4.7178912202     -0.3361657260      4.8233403703
 H      1.6507039715      6.2007909989      4.8127374407
 H     -1.7478134595      4.1797821484      4.7965299004
 H      3.8338601745      3.9687729191      4.6466693556
 H      1.3790894130      1.7146709674      4.7348652072
 H      4.1255008018      0.2605443843     -0.2705641916
 H     -1.6953534710      6.3999697397     -0.0047908953
 H      0.1435012261      1.9481806298     -0.0179489050
 H      5.6730321558      2.6896146707      0.0309562581
 H      2.4500272968      2.9688056011     -0.4741630186
 H      4.0415037175     -0.4858423440      3.4612754490
 H      0.8104669895      6.3688372969      3.5782411897
 H     -1.8629670545      3.3404819644      3.5730805317
 H      5.0984562626      3.1927243755      3.9977890420
 H      1.6562314554      2.6209239090      3.4324626037
 H     -0.2949161421      5.9619556238      6.9081996930
 H     -2.9909759343      4.8627492441      7.2293374771
 H      0.9044909091      1.4992982842      7.1113984692
 H      5.2885232200      0.5878796643      7.1910882552
 H      2.4136561029      1.4936574818      6.7497160259
 H      5.2776926351      5.4723289951      7.0640781136
 H      1.8544226637      0.2641375658      3.3274358102
 H      5.8067106940      1.0294307553      3.6881569512
 H      3.1441563806      3.9793907923      2.8911707754
 H     -1.4545085610      5.7206937034      3.6544566063
 H      1.9824266050      4.9665506819      3.1569993085
 H     -0.2382625619      1.9245511621      3.4166449088
 O      3.1362245219      0.4349965766     -0.2172833454
 O     -1.2019360756      7.1294021082      0.3805747242
 O     -0.7683043675      2.0635842771      0.3003844534
 O      5.6982273764      1.7427830323      0.4063802408
 O      2.0439936543      3.8409818702     -0.2525349219
 O      4.9378085850     -0.4116133370      3.8557766077
 O      1.7817683262      6.3182256485      3.8168174848
 O     -2.1933275941      4.2498480181      3.8933951874
 O      4.6704120651      4.0260280451      4.1114961389
 O      1.3942196659      1.6420306768      3.7344527666
 O      4.5431434500     -0.0538741023      6.8305285061
 O      0.5398242842      6.5310558564      6.7527465289
 O     -2.2304779023      4.3647945815      6.8752331193
 O      4.8844028192      4.5720952373      7.0581851633
 O      1.5513638896      1.9955279167      6.5312187693
 O      2.3891811942     -0.6285051515      3.2254544774
 O     -0.7716918653      6.5175884392      3.4793733206
 O     -1.2483902551      1.9450656067      3.4987685694
 O      6.0153217694      2.0240971331      3.5330358319
 O      2.1889264228      4.0163764065      2.8057316916
 H      4.7824257968     -0.9155661304      7.2921955541
 H      1.1162984248      6.1818512809      7.5000389617
 H     -2.6913628231      3.5362240633      6.4909068750
 H      5.1810605231      4.2373525802      6.1402310500
 H      2.2386677118     -0.9345930213      2.3408426498
 H     -1.2474911874      7.4024380843      3.4754077601
 H     -1.4368446043      1.6556036137      2.5857190325
 H      6.9664130831      2.1348825514      3.3664124809
60
# ORCA AIMD Position Step 149, t=74.50 fs, E_Pot=-1525.76901807 Hartree, Unit is Angstrom
 H      3.1717836875      0.9288037977      0.7004005296
 H     -0.9395310187      6.7331675352      1.2721371652
 H     -0.7645764956      3.0936817562      0.2167147034
 H      5.7831900783      2.0530837101      1.3374695207
 H      1.7164347631      3.6939127629      0.6999683717
 H      4.7190043105     -0.3469705296      4.8310445412
 H      1.6627828750      6.1992976421      4.8170478802
 H     -1.7510722857      4.1711695971      4.8004210832
 H      3.8360056137      3.9671725644      4.6534982794
 H      1.3882555609      1.7213109271      4.7415137279
 H      4.1297427448      0.2643472965     -0.2742958804
 H     -1.6991992456      6.4033749038      0.0026063114
 H      0.1470860768      1.9411519640     -0.0065037732
 H      5.6890409439      2.6863498450      0.0368145679
 H      2.4556826735      2.9725393269     -0.4739969861
 H      4.0392413883     -0.4810097112      3.4601449363
 H      0.8020864526      6.3606042256      3.5840349687
 H     -1.8516848787      3.3338631248      3.5729116917
 H      5.1010287393      3.1821479464      4.0122015244
 H      1.6612525114      2.6259598058      3.4319310923
 H     -0.3008488961      5.9702864188      6.9045056444
 H     -2.9895021589      4.8520256303      7.2345270798
 H      0.9236877692      1.4893825461      7.1139330088
 H      5.2791323617      0.5887713972      7.1891745791
 H      2.4144633982      1.5035090310      6.7466454368
 H      5.2716831996      5.4699939436      7.0721765116
 H      1.8600467981      0.2570085218      3.3374467596
 H      5.8108335661      1.0206280933      3.6864675132
 H      3.1312955115      3.9812575504      2.8799787091
 H     -1.4505929591      5.7224443996      3.6574933431
 H      1.9871472681      4.9581623427      3.1527993735
 H     -0.2373192586      1.9213165027      3.4181651053
 O      3.1427622246      0.4403982413     -0.2195890722
 O     -1.2016140039      7.1334775778      0.3778359777
 O     -0.7633835010      2.0652395863      0.2995307490
 O      5.6897407426      1.7395626167      0.4049303976
 O      2.0389828992      3.8322958414     -0.2560950578
 O      4.9360847531     -0.4140421795      3.8573033678
 O      1.7838347763      6.3179083513      3.8179068433
 O     -2.1907535067      4.2490115971      3.8943166406
 O      4.6682894807      4.0223365031      4.1127725327
 O      1.3945366903      1.6376061277      3.7343910642
 O      4.5395177030     -0.0540225963      6.8302231168
 O      0.5360761919      6.5282372226      6.7519512989
 O     -2.2281806068      4.3650369104      6.8754245632
 O      4.8848232009      4.5741221049      7.0605855888
 O      1.5528325696      1.9931845282      6.5289121035
 O      2.3889145618     -0.6349219307      3.2228605378
 O     -0.7696381510      6.5188985054      3.4810976478
 O     -1.2510667370      1.9421553831      3.5016384392
 O      6.0138172136      2.0219504353      3.5351175925
 O      2.1876282240      4.0155573892      2.8003105952
 H      4.7704999001     -0.9135946220      7.3018048875
 H      1.0949819769      6.1756170747      7.5049097193
 H     -2.6801253523      3.5389470531      6.4993665253
 H      5.1662078326      4.2414392227      6.1389911198
 H      2.2371329987     -0.9358976640      2.3413717499
 H     -1.2463992251      7.3888425815      3.4652841143
 H     -1.4158443970      1.6685872264      2.5850070065
 H      6.9522657145      2.1369675376      3.3679066535
60
# ORCA AIMD Position Step 150, t=75.00 fs, E_Pot=-1525.77116499 Hartree, Unit is Angstrom
 H      3.1706505077      0.9436827755      0.6954071955
 H     -0.9277557792      6.7326174964      1.2949173124
 H     -0.7580131719      3.0812727877      0.1942601458
 H      5.7736941314      2.0506105252      1.3527854385
 H      1.7201152957      3.6949046502      0.6982161705
 H      4.7205447150     -0.3580861414      4.8372765784
 H      1.6753349105      6.1984076968      4.8188396661
 H     -1.7563005949      4.1639332493      4.8022393008
 H      3.8403274956      3.9647882118      4.6593572373
 H      1.3972906688      1.7275818022      4.7470972220
 H      4.1318220068      0.2691123153     -0.2782352494
 H     -1.7040896036      6.4054569286      0.0090128542
 H      0.1520435306      1.9332669908      0.0043983650
 H      5.7045710841      2.6792432099      0.0422696660
 H      2.4614059688      2.9760977115     -0.4735912674
 H      4.0346515982     -0.4761060201      3.4583237185
 H      0.7941092404      6.3535447334      3.5897650686
 H     -1.8405127666      3.3280972281      3.5721478877
 H      5.1052399703      3.1664959837      4.0263264668
 H      1.6664424361      2.6285911951      3.4314692689
 H     -0.3039506897      5.9805000302      6.8996094301
 H     -2.9883538222      4.8418131227      7.2395701034
 H      0.9436726782      1.4806957215      7.1149990502
 H      5.2655178167      0.5859387288      7.1850714154
 H      2.4128547388      1.5149814241      6.7426326445
 H      5.2655959923      5.4675853874      7.0799980872
 H      1.8678725460      0.2475520939      3.3468221785
 H      5.8142508965      1.0127557103      3.6839074243
 H      3.1234195553      3.9830184172      2.8689096450
 H     -1.4447038249      5.7263942568      3.6592303033
 H      1.9917616524      4.9503161232      3.1494098462
 H     -0.2371255700      1.9179862173      3.4215980196
 O      3.1494162108      0.4459411773     -0.2215244817
 O     -1.2011861634      7.1375236838      0.3753599931
 O     -0.7585095869      2.0672649606      0.2987097884
 O      5.6812958984      1.7367009972      0.4034862991
 O      2.0338626460      3.8235486116     -0.2594488583
 O      4.9345485294     -0.4164017338      3.8590219501
 O      1.7858305621      6.3175335684      3.8191948291
 O     -2.1880624442      4.2481899487      3.8954623263
 O      4.6658748927      4.0191014035      4.1141798088
 O      1.3948370904      1.6335101247      3.7343979217
 O      4.5361932872     -0.0540773858      6.8301279223
 O      0.5322386378      6.5252068520      6.7513302904
 O     -2.2259551712      4.3650577118      6.8755421975
 O      4.8853035398      4.5760385465      7.0627866286
 O      1.5544244491      1.9906471331      6.5267363105
 O      2.3886212721     -0.6411604570      3.2204917344
 O     -0.7678214624      6.5201287653      3.4828031111
 O     -1.2536048735      1.9391989035      3.5044351367
 O      6.0122626643      2.0196394552      3.5371759542
 O      2.1860235600      4.0146248148      2.7948484204
 H      4.7578206053     -0.9089681312      7.3098750906
 H      1.0727004068      6.1704663558      7.5076880692
 H     -2.6671797857      3.5447336905      6.5090710519
 H      5.1503725483      4.2472505338      6.1405398641
 H      2.2347317269     -0.9382669809      2.3380129352
 H     -1.2446817350      7.3731622073      3.4554009518
 H     -1.3961923471      1.6811092081      2.5826092949
 H      6.9398211814      2.1388046146      3.3693901339
60
# ORCA AIMD Position Step 151, t=75.50 fs, E_Pot=-1525.77443004 Hartree, Unit is Angstrom
 H      3.1694297819      0.9556487683      0.6852902158
 H     -0.9172540090      6.7343146835      1.3131978477
 H     -0.7520908474      3.0650394053      0.1723558509
 H      5.7638197022      2.0456399611      1.3674820075
 H      1.7258133889      3.6966293588      0.6937803303
 H      4.7225168274     -0.3694853482      4.8417110350
 H      1.6882792398      6.1981310820      4.8181179948
 H     -1.7633852098      4.1581235500      4.8021600854
 H      3.8464704026      3.9616643759      4.6644086710
 H      1.4061022560      1.7333328507      4.7511108184
 H      4.1321106620      0.2748246725     -0.2822927814
 H     -1.7099756623      6.4062168419      0.0145646629
 H      0.1586128104      1.9244565395      0.0147055518
 H      5.7195587540      2.6688330274      0.0470967426
 H      2.4675105579      2.9788038779     -0.4730747887
 H      4.0280498504     -0.4711517735      3.4560202530
 H      0.7872402613      6.3476619489      3.5956344176
 H     -1.8296655593      3.3235988286      3.5709492259
 H      5.1104247094      3.1472211310      4.0402845646
 H      1.6716576325      2.6284469199      3.4310956817
 H     -0.3048978219      5.9921977914      6.8935315214
 H     -2.9877082142      4.8323081297      7.2445966178
 H      0.9638274190      1.4729800848      7.1149333405
 H      5.2482557472      0.5798298883      7.1790547684
 H      2.4096986327      1.5277002469      6.7377753356
 H      5.2597386921      5.4657575251      7.0874919410
 H      1.8776321014      0.2360588903      3.3554546818
 H      5.8168975862      1.0060160068      3.6805225907
 H      3.1215152151      3.9845485551      2.8580373753
 H     -1.4369984775      5.7322422918      3.6597311356
 H      1.9960458863      4.9434957008      3.1469910839
 H     -0.2377271131      1.9145961619      3.4271962167
 O      3.1561497453      0.4516321576     -0.2230884955
 O     -1.2006161809      7.1414946483      0.3732598208
 O     -0.7536954605      2.0695992773      0.2979249389
 O      5.6729116870      1.7341940052      0.4021580946
 O      2.0286182622      3.8147914458     -0.2625972098
 O      4.9331816162     -0.4186912744      3.8609370643
 O      1.7877197895      6.3170993478      3.8206673653
 O     -2.1852485034      4.2473552211      3.8968087315
 O      4.6632298579      4.0162304717      4.1156964644
 O      1.3951329008      1.6297751321      3.7345017423
 O      4.5331305022     -0.0540568238      6.8302212914
 O      0.5283217375      6.5220008922      6.7508532795
 O     -2.2237607748      4.3649085378      6.8756094780
 O      4.8858116293      4.5778076109      7.0648133789
 O      1.5561244348      1.9879571626      6.5246652121
 O      2.3883189535     -0.6472403410      3.2183531341
 O     -0.7661910241      6.5212050082      3.4844865655
 O     -1.2559800045      1.9362018148      3.5071698313
 O      6.0105770082      2.0171348700      3.5392245460
 O      2.1840651898      4.0135572320      2.7893344895
 H      4.7444703524     -0.9018536381      7.3164761390
 H      1.0499803143      6.1662381767      7.5088547237
 H     -2.6530210251      3.5525648876      6.5195384651
 H      5.1337870220      4.2547136466      6.1445221137
 H      2.2314370478     -0.9416075897      2.3307923452
 H     -1.2430315298      7.3568464399      3.4457491556
 H     -1.3781817584      1.6930575267      2.5780815682
 H      6.9304062425      2.1406164217      3.3706294283
60
# ORCA AIMD Position Step 152, t=76.00 fs, E_Pot=-1525.77750707 Hartree, Unit is Angstrom
 H      3.1682590225      0.9647829017      0.6703331648
 H     -0.9084635133      6.7386664770      1.3257008984
 H     -0.7468356943      3.0464410596      0.1509236710
 H      5.7534335143      2.0378790920      1.3803130201
 H      1.7333376869      3.6989606127      0.6871048048
 H      4.7248881753     -0.3811235540      4.8442003777
 H      1.7015210957      6.1984439225      4.8151235991
 H     -1.7721020020      4.1537506198      4.8005829869
 H      3.8538783072      3.9578485845      4.6689447724
 H      1.4145945712      1.7384313172      4.7531904305
 H      4.1311811933      0.2814176156     -0.2864191392
 H     -1.7166598453      6.4058743055      0.0194897170
 H      0.1667695204      1.9147047853      0.0244526404
 H      5.7339787010      2.6559075702      0.0510205854
 H      2.4742811877      2.9800991761     -0.4725586140
 H      4.0199476612     -0.4661699649      3.4535299368
 H      0.7820820079      6.3429627132      3.6018004823
 H     -1.8193391902      3.3207050271      3.5694711928
 H      5.1158028868      3.1260672032      4.0541568293
 H      1.6767791234      2.6253083475      3.4307997780
 H     -0.3046406868      6.0048274699      6.8863294937
 H     -2.9876529826      4.8236509960      7.2496971230
 H      0.9834634817      1.4658905807      7.1141685488
 H      5.2282810391      0.5712390375      7.1715718127
 H      2.4061081593      1.5411832376      6.7322302912
 H      5.2543790545      5.4651075061      7.0946269548
 H      1.8889393327      0.2230013810      3.3632711173
 H      5.8187050932      1.0005021164      3.6763875170
 H      3.1256704344      3.9857818468      2.8473789470
 H     -1.4277470876      5.7395648077      3.6590980928
 H      1.9998258126      4.9380793206      3.1456662611
 H     -0.2391117360      1.9111658143      3.4351495740
 O      3.1629148050      0.4574671600     -0.2243022011
 O     -1.1998888298      7.1453490990      0.3716021393
 O     -0.7489384946      2.0721512060      0.2971798578
 O      5.6646018911      1.7320129128      0.4010431036
 O      2.0232432311      3.8060696542     -0.2655606789
 O      4.9319552399     -0.4209109341      3.8630361404
 O      1.7894739425      6.3166059174      3.8222983918
 O     -2.1823145274      4.2464859338      3.8983186362
 O      4.6604360715      4.0136130832      4.1172944915
 O      1.3954354111      1.6264222416      3.7347242943
 O      4.5302647009     -0.0539858532      6.8304630517
 O      0.5243468728      6.5186702268      6.7504774177
 O     -2.2215526238      4.3646655306      6.8756606471
 O      4.8863144556      4.5794026687      7.0667059495
 O      1.5579062618      1.9851684322      6.5226633206
 O      2.3880257113     -0.6532046693      3.2164113607
 O     -0.7646814756      6.5220523348      3.4861460641
 O     -1.2581784826      1.9331639683      3.5098340196
 O      6.0087027146      2.0144159193      3.5412715934
 O      2.1817601667      4.0123361125      2.7837637154
 H      4.7305728266     -0.8926618629      7.3218053601
 H      1.0274420914      6.1626933775      7.5090550628
 H     -2.6382974227      3.5610885021      6.5301535316
 H      5.1167382355      4.2636475510      6.1503274234
 H      2.2273257491     -0.9456314168      2.3203147398
 H     -1.2422592174      7.3415027520      3.4362744565
 H     -1.3619887805      1.7044294965      2.5713413688
 H      6.9249736980      2.1425894929      3.3714566191
60
# ORCA AIMD Position Step 153, t=76.50 fs, E_Pot=-1525.77899753 Hartree, Unit is Angstrom
 H      3.1672484638      0.9714088407      0.6512243047
 H     -0.9016618240      6.7458560413      1.3316634537
 H     -0.7422544863      3.0273152383      0.1297609303
 H      5.7424450976      2.0271904178      1.3903287863
 H      1.7424140605      3.7017619775      0.6789177939
 H      4.7275929815     -0.3929455122      4.8447847231
 H      1.7149607582      6.1992900939      4.8103295847
 H     -1.7821335724      4.1507832868      4.7981183706
 H      3.8618412210      3.9533904820      4.6733643208
 H      1.4226765047      1.7427685116      4.7531279068
 H      4.1297649151      0.2887794802     -0.2906031701
 H     -1.7238296373      6.4048232952      0.0240718107
 H      0.1762284077      1.9040642623      0.0337539077
 H      5.7478653662      2.6414655936      0.0537250770
 H      2.4819242612      2.9796288809     -0.4721133384
 H      4.0109728858     -0.4611924240      3.4511952781
 H      0.7790930167      6.3394513490      3.6083711229
 H     -1.8097011173      3.3196687521      3.5678585276
 H      5.1206315324      3.1047604619      4.0679586610
 H      1.6817124235      2.6190978109      3.4305453044
 H     -0.3043572411      6.0177214296      6.8780891345
 H     -2.9881752290      4.8159105442      7.2549106604
 H      1.0018879552      1.4590275029      7.1131894526
 H      5.2069071452      0.5613335656      7.1632505627
 H      2.4033687603      1.5548836706      6.7262000836
 H      5.2497080528      5.4660825215      7.1013876275
 H      1.9012998294      0.2090319170      3.3702427096
 H      5.8196141820      0.9962107092      3.6715998659
 H      3.1350562657      3.9867081445      2.8369091439
 H     -1.4173286498      5.7478214320      3.6574691674
 H      2.0029905316      4.9342958945      3.1455041618
 H     -0.2412192229      1.9076978992      3.4455760286
 O      3.1696552043      0.4634296629     -0.2252096129
 O     -1.1990061681      7.1490487601      0.3704171081
 O     -0.7442211313      2.0748012317      0.2964811205
 O      5.6563738197      1.7301062163      0.4002223034
 O      2.0177412174      3.7974165169     -0.2683801721
 O      4.9308347531     -0.4230612564      3.8652912050
 O      1.7910735326      6.3160558980      3.8240503031
 O     -2.1792717402      4.2455675186      3.8999423766
 O      4.6575831244      4.0111394813      4.1189423729
 O      1.3957546317      1.6234614031      3.7350796340
 O      4.5275057060     -0.0538990873      6.8307938160
 O      0.5203473823      6.5152768464      6.7501507636
 O     -2.2192855722      4.3644252377      6.8757385581
 O      4.8867818761      4.5808122968      7.0685185184
 O      1.5597329085      1.9823422850      6.5206894219
 O      2.3877608215     -0.6591164571      3.2146027313
 O     -0.7632197360      6.5226083786      3.4877810604
 O     -1.2601964513      1.9300802341      3.5123999073
 O      6.0066179605      2.0114727993      3.5433179095
 O      2.1791700034      4.0109488565      2.7781367305
 H      4.7162811483     -0.8820242389      7.3261877924
 H      1.0057439505      6.1595335371      7.5090504802
 H     -2.6237635685      3.5687010088      6.5402137595
 H      5.0995460191      4.2737781738      6.1571093863
 H      2.2225588839     -0.9499095687      2.3076260646
 H     -1.2431799357      7.3286809242      3.4268782167
 H     -1.3476827659      1.7153186024      2.5626714827
 H      6.9238970918      2.1448356663      3.3718094773
60
# ORCA AIMD Position Step 154, t=77.00 fs, E_Pot=-1525.77832367 Hartree, Unit is Angstrom
 H      3.1664740306      0.9761187488      0.6290814797
 H     -0.8969871077      6.7558939665      1.3307478638
 H     -0.7383271051      3.0097299832      0.1085337069
 H      5.7308079515      2.0135856007      1.3968863857
 H      1.7527086735      3.7048969690      0.6701973245
 H      4.7305367613     -0.4048908495      4.8436873863
 H      1.7285004606      6.2005850887      4.8044178620
 H     -1.7930938898      4.1491524729      4.7955514763
 H      3.8695751840      3.9483393766      4.6781229472
 H      1.4302668331      1.7462628890      4.7508855597
 H      4.1286856023      0.2967688927     -0.2948661321
 H     -1.7311021621      6.4035653235      0.0286117695
 H      0.1864922697      1.8926637508      0.0427755686
 H      5.7613171411      2.6266363626      0.0548789142
 H      2.4905216104      2.9772963723     -0.4717535007
 H      4.0017916873     -0.4562668992      3.4493661258
 H      0.7785637663      6.3371293335      3.6154021769
 H     -1.8008855447      3.3206530400      3.5662413695
 H      5.1242999159      3.0848108107      4.0816364961
 H      1.6863903670      2.6098778569      3.4302679414
 H     -0.3053506995      6.0301597737      6.8689111779
 H     -2.9891673494      4.8090817323      7.2602198315
 H      1.0184804829      1.4519883365      7.1124695987
 H      5.1857996591      0.5516355938      7.1548882478
 H      2.4028011892      1.5682556033      6.7199072521
 H      5.2458135511      5.4689046428      7.1077656429
 H      1.9141340378      0.1949567316      3.3763883817
 H      5.8195827631      0.9930517807      3.6662753521
 H      3.1481468320      3.9873591387      2.8265891871
 H     -1.4062314242      5.7563576708      3.6550147059
 H      2.0054980904      4.9321955673      3.1465040752
 H     -0.2439593255      1.9041799550      3.4585164378
 O      3.1763112087      0.4694880930     -0.2258796306
 O     -1.1979834229      7.1525594789      0.3697064853
 O     -0.7395144087      2.0774104511      0.2958403575
 O      5.6482280067      1.7284050177      0.3997580445
 O      2.0121275468      3.7888491956     -0.2711157533
 O      4.9297842254     -0.4251426442      3.8676617069
 O      1.7925090113      6.3154539860      3.8258755831
 O     -2.1761384874      4.2445926311      3.9016204176
 O      4.6547575384      4.0087133987      4.1206085385
 O      1.3960989127      1.6208912941      3.7355734866
 O      4.5247400213     -0.0538420153      6.8311364563
 O      0.5163666358      6.5118877251      6.7498182609
 O     -2.2169194588      4.3642931002      6.8758895486
 O      4.8871896456      4.5820433975      7.0703167709
 O      1.5615604044      1.9795401436      6.5187020629
 O      2.3875453661     -0.6650519826      3.2128464652
 O     -0.7617350740      6.5228405413      3.4893911482
 O     -1.2620374227      1.9269425480      3.5148243748
 O      6.0043418581      2.0083081082      3.5453560031
 O      2.1763963355      4.0093915933      2.7724591050
 H      4.7017674402     -0.8707540019      7.3300638119
 H      0.9855109758      6.1564341424      7.5096352842
 H     -2.6101886347      3.5737323971      6.5490149366
 H      5.0825404652      4.2847643723      6.1638340730
 H      2.2173485757     -0.9539521318      2.2940013079
 H     -1.2464521282      7.3195931117      3.4174395811
 H     -1.3352495166      1.7258802791      2.5526621907
 H      6.9268826226      2.1473634253      3.3717501504
60
# ORCA AIMD Position Step 155, t=77.50 fs, E_Pot=-1525.77633128 Hartree, Unit is Angstrom
 H      3.1659712048      0.9797935942      0.6054619823
 H     -0.8944472881      6.7686457839      1.3230000683
 H     -0.7350011165      2.9957003519      0.0868078106
 H      5.7185180057      1.9972134533      1.3996466294
 H      1.7638639089      3.7082419736      0.6620930372
 H      4.7336026496     -0.4169003625      4.8413003791
 H      1.7420520275      6.2022232826      4.7982321943
 H     -1.8045657553      4.1487592353      4.7937756620
 H      3.8763210913      3.9427447346      4.6836675438
 H      1.4372998778      1.7488626805      4.7466037678
 H      4.1287667348      0.3052362996     -0.2992507927
 H     -1.7380762873      6.4026345584      0.0333901084
 H      0.1969341738      1.8807053034      0.0517029115
 H      5.7744900541      2.6125543969      0.0541776698
 H      2.5000063711      2.9732722160     -0.4714335286
 H      3.9930410305     -0.4514590323      3.4483647128
 H      0.7806007121      6.3359941241      3.6228990817
 H     -1.7929876976      3.3237282454      3.5647320111
 H      5.1263650585      3.0674233746      4.0950818409
 H      1.6907772126      2.5978507389      3.4298726017
 H     -0.3088809502      6.0414658974      6.8588929230
 H     -2.9904481500      4.8030914671      7.2655547280
 H      1.0327737856      1.4444294786      7.1123981035
 H      5.1668442582      0.5439040571      7.1473891284
 H      2.4055657696      1.5808395313      6.7135568093
 H      5.2426704799      5.4735326939      7.1137517165
 H      1.9268173129      0.1816816501      3.3817724348
 H      5.8185916670      0.9908643731      3.6605412870
 H      3.1630724303      3.9877890673      2.8163930131
 H     -1.3950405357      5.7644220546      3.6519298072
 H      2.0073699715      4.9316454694      3.1485893958
 H     -0.2472252894      1.9005866006      3.4739340856
 O      3.1828257689      0.4755932593     -0.2264073976
 O     -1.1968451473      7.1558543036      0.3694487258
 O     -0.7347834072      2.0798386345      0.2952743575
 O      5.6401587152      1.7268315947      0.3996915704
 O      2.0064284335      3.7803672590     -0.2738420223
 O      4.9287703174     -0.4271550360      3.8700977420
 O      1.7937811559      6.3148064207      3.8277196680
 O     -2.1729381287      4.2435610750      3.9032877837
 O      4.6520342966      4.0062575036      4.1222648859
 O      1.3964743261      1.6186991632      3.7362030851
 O      4.5218398616     -0.0538679147      6.8314017571
 O      0.5124526763      6.5085658724      6.7494297613
 O     -2.2144262733      4.3643650788      6.8761554632
 O      4.8875218848      4.5831209806      7.0721724859
 O      1.5633451317      1.9768141350      6.5166663554
 O      2.3874019630     -0.6710926332      3.2110583305
 O     -0.7601702782      6.5227613219      3.4909740114
 O     -1.2637101362      1.9237422147      3.5170559822
 O      6.0019296154      2.0049363323      3.5473712166
 O      2.1735588176      4.0076707974      2.7667400492
 H      4.6872093924     -0.8597758739      7.3339602863
 H      0.9672520548      6.1530900280      7.5115264909
 H     -2.5982206117      3.5747315512      6.5559735973
 H      5.0660318036      4.2962400837      6.1693734913
 H      2.2119226371     -0.9572842880      2.2807308090
 H     -1.2524109219      7.3148479430      3.4078529913
 H     -1.3246139238      1.7362926877      2.5421020401
 H      6.9330431575      2.1500742655      3.3714521607
60
# ORCA AIMD Position Step 156, t=78.00 fs, E_Pot=-1525.77499756 Hartree, Unit is Angstrom
 H      3.1657323868      0.9835878697      0.5823100007
 H     -0.8939133706      6.7838366036      1.3088614644
 H     -0.7321886979      2.9867893195      0.0641355370
 H      5.7056120755      1.9783468968      1.3985745526
 H      1.7755457322      3.7117006017      0.6557926560
 H      4.7366596219     -0.4289218214      4.8381561197
 H      1.7555436617      6.2040890880      4.7926993766
 H     -1.8161500736      4.1494879211      4.7936887053
 H      3.8814529426      3.9366598009      4.6903590859
 H      1.4437304025      1.7505479633      4.7406042894
 H      4.1307200240      0.3140506803     -0.3038045759
 H     -1.7443809493      6.4025302096      0.0386370506
 H      0.2068921871      1.8684508235      0.0607080168
 H      5.7875732443      2.6001958785      0.0514021537
 H      2.5101676357      2.9679538785     -0.4710566332
 H      3.9852796640     -0.4468508107      3.4484597590
 H      0.7851156262      6.3360387718      3.6308205164
 H     -1.7860572874      3.3288678280      3.5634216121
 H      5.1265479806      3.0534852393      4.1081507285
 H      1.6948744222      2.5833619202      3.4292292661
 H     -0.3159438357      6.0511211495      6.8481095457
 H     -2.9917942281      4.7978123635      7.2708046245
 H      1.0445200397      1.4361262389      7.1132114735
 H      5.1518623495      0.5398661772      7.1416296778
 H      2.4124406558      1.5923479570      6.7072951345
 H      5.2401510960      5.4796730668      7.1193296962
 H      1.9387394347      0.1701189697      3.3864919794
 H      5.8166472827      0.9894346375      3.6545299239
 H      3.1779538140      3.9880574486      2.8063202508
 H     -1.3844051318      5.7712073087      3.6484208167
 H      2.0086767185      4.9323506567      3.1516108314
 H     -0.2509061110      1.8968825650      3.4917185584
 O      3.1891516873      0.4816776800     -0.2269121175
 O     -1.1956226177      7.1589175307      0.3696002904
 O     -0.7299933209      2.0819702285      0.2948016170
 O      5.6321556099      1.7253104531      0.4000393111
 O      2.0006776685      3.7719542417     -0.2766391870
 O      4.9277649484     -0.4290977344      3.8725436210
 O      1.7949012380      6.3141201706      3.8295257015
 O     -2.1696961528      4.2424795214      3.9048807876
 O      4.6494702008      4.0037139304      4.1238908223
 O      1.3968839395      1.6168605511      3.7369573673
 O      4.5186818842     -0.0540275387      6.8315000200
 O      0.5086492863      6.5053598765      6.7489486998
 O     -2.2117973416      4.3647061162      6.8765647139
 O      4.8877724897      4.5840839767      7.0741547363
 O      1.5650536573      1.9741978243      6.5145606654
 O      2.3873528591     -0.6773155860      3.2091618825
 O     -0.7584902366      6.5224341999      3.4925234582
 O     -1.2652267825      1.9204719077      3.5190426420
 O      5.9994598770      2.0013815976      3.5493444466
 O      2.1707747002      4.0058031474      2.7609912565
 H      4.6727753591     -0.8500199777      7.3384395365
 H      0.9512813889      6.1492657058      7.5152439893
 H     -2.5882403150      3.5707937329      6.5607573008
 H      5.0502772362      4.3078706531      6.1726504558
 H      2.2064958903     -0.9595030503      2.2689545254
 H     -1.2609641045      7.3143094721      3.3980693158
 H     -1.3156581140      1.7467222210      2.5318543552
 H      6.9410994837      2.1527828177      3.3711614965
60
# ORCA AIMD Position Step 157, t=78.50 fs, E_Pot=-1525.77620277 Hartree, Unit is Angstrom
 H      3.1657122630      0.9888357963      0.5617787163
 H     -0.8950959287      6.8010356004      1.2892322726
 H     -0.7297655035      2.9837148114      0.0401882129
 H      5.6921666525      1.9573701065      1.3939496131
 H      1.7874946886      3.7152160448      0.6523371813
 H      4.7395731270     -0.4409144233      4.8348815020
 H      1.7689241370      6.2060719151      4.7887165228
 H     -1.8275212549      4.1512227890      4.7960577132
 H      3.8845743958      3.9301477069      4.6983984646
 H      1.4495373686      1.7513316202      4.7333836001
 H      4.1350348272      0.3231268930     -0.3085581718
 H     -1.7497141304      6.4036637169      0.0445119492
 H      0.2157577484      1.8562002451      0.0699239218
 H      5.8007466039      2.5902091855      0.0464836515
 H      2.5206820813      2.9618886877     -0.4704938766
 H      3.9789577510     -0.4425365162      3.4498501381
 H      0.7918208122      6.3372525584      3.6390837552
 H     -1.7800919349      3.3359430017      3.5623765217
 H      5.1247126325      3.0435880010      4.1206823438
 H      1.6987267892      2.5669025413      3.4281693677
 H     -0.3270521181      6.0588663418      6.8366035655
 H     -2.9929748293      4.7930820516      7.2758349304
 H      1.0537247247      1.4270144923      7.1149495930
 H      5.1421972621      0.5408124991      7.1382621489
 H      2.4236423571      1.6027191773      6.7011799396
 H      5.2380522977      5.4868360127      7.1244747647
 H      1.9493774688      0.1610616538      3.3906533100
 H      5.8137812658      0.9885149193      3.6483722222
 H      3.1911318187      3.9882170218      2.7963953793
 H     -1.3749786102      5.7759222974      3.6446853119
 H      2.0095182560      4.9338979096      3.1553599115
 H     -0.2548959180      1.8930258565      3.5116929265
 O      3.1952581534      0.4876597582     -0.2275272573
 O     -1.1943528883      7.1617490451      0.3700931272
 O     -0.7251150311      2.0837404964      0.2944355953
 O      5.6242065899      1.7237797688      0.4007881520
 O      1.9949113992      3.7635817011     -0.2795802442
 O      4.9267467058     -0.4309693498      3.8749419556
 O      1.7958910711      6.3134017910      3.8312412940
 O     -2.1664368682      4.2413611181      3.9063457286
 O      4.6470990143      4.0010424268      4.1254772317
 O      1.3973270700      1.6153391677      3.7378177109
 O      4.5151741217     -0.0543520639      6.8313579375
 O      0.5049855344      6.5022948320      6.7483589243
 O     -2.2090471111      4.3653335159      6.8771258247
 O      4.8879452215      4.5849779149      7.0763185730
 O      1.5666719360      1.9717001442      6.5123811241
 O      2.3874165657     -0.6837838651      3.2070965266
 O     -0.7566851239      6.5219652065      3.4940288031
 O     -1.2666016946      1.9171269992      3.5207382622
 O      5.9970193531      1.9976744093      3.5512554289
 O      2.1681453495      4.0038136806      2.7552259440
 H      4.6586096387     -0.8422866585      7.3440262254
 H      0.9376660704      6.1448372964      7.5210124058
 H     -2.5802664968      3.5618044104      6.5633703655
 H      5.0354520726      4.3194132234      6.1728190624
 H      2.2012509271     -0.9603108628      2.2595575683
 H     -1.2716024776      7.3171522089      3.3881218653
 H     -1.3082339600      1.7572995699      2.5227471996
 H      6.9496272003      2.1552508622      3.3711475984
60
# ORCA AIMD Position Step 158, t=79.00 fs, E_Pot=-1525.78032611 Hartree, Unit is Angstrom
 H      3.1658472175      0.9968429073      0.5458853930
 H     -0.8975063764      6.8196251798      1.2655766640
 H     -0.7275712003      2.9861460509      0.0148842927
 H      5.6782963164      1.9347640947      1.3863830634
 H      1.7995656468      3.7187763829      0.6524191804
 H      4.7422182985     -0.4528509236      4.8321322270
 H      1.7821619036      6.2080827163      4.7870169851
 H     -1.8384759618      4.1538638696      4.8013772538
 H      3.8855779540      3.9232877299      4.7077751796
 H      1.4547260917      1.7512589723      4.7255923011
 H      4.1418959034      0.3324467823     -0.3135041051
 H     -1.7538714144      6.4063213124      0.0510916768
 H      0.2230459272      1.8442646152      0.0794282631
 H      5.8141298305      2.5827925344      0.0395572051
 H      2.5311629176      2.9556818025     -0.4696081917
 H      3.9744007128     -0.4386173447      3.4526563796
 H      0.8002309752      6.3396223548      3.6475716937
 H     -1.7750305496      3.3447155820      3.5616340272
 H      5.1208428352      3.0380584548      4.1325142695
 H      1.7024277484      2.5491084300      3.4264838339
 H     -0.3420982902      6.0647493580      6.8243901436
 H     -2.9937838214      4.7887250169      7.2805061680
 H      1.0606374100      1.4172009252      7.1174499227
 H      5.1383214402      0.5471960322      7.1375286502
 H      2.4387605623      1.6121138202      6.6951752313
 H      5.2361322502      5.4944207993      7.1291562358
 H      1.9583678307      0.1550465093      3.3943408987
 H      5.8100481423      0.9878435214      3.6421925316
 H      3.2012812393      3.9883071500      2.7866579961
 H     -1.3673324074      5.7778932265      3.6408875811
 H      2.0100034461      4.9358103036      3.1595888734
 H     -0.2591026520      1.8889710077      3.5336229739
 O      3.2011345329      0.4934555107     -0.2283802154
 O     -1.1930794594      7.1643686018      0.3708289375
 O     -0.7201294753      2.0851500438      0.2941776490
 O      5.6163012523      1.7222000023      0.4018910312
 O      1.9891625591      3.7552147320     -0.2827167501
 O      4.9257012348     -0.4327678615      3.8772384722
 O      1.7967830062      6.3126561588      3.8328265040
 O     -2.1631805303      4.2402251986      3.9076480362
 O      4.6449290670      3.9982180180      4.1270291941
 O      1.3977986659      1.6140871550      3.7387593629
 O      4.5112814994     -0.0548366446      6.8309355926
 O      0.5014677496      6.4993680997      6.7476671712
 O     -2.2062107378      4.3662130954      6.8778264090
 O      4.8880523434      4.5858466276      7.0786939576
 O      1.5682100049      1.9693049527      6.5101422171
 O      2.3876040441     -0.6905368734      3.2048228480
 O     -0.7547685099      6.5214821381      3.4954762165
 O     -1.2678503028      1.9137062158      3.5221075061
 O      5.9946894490      1.9938481839      3.5530856014
 O      2.1657501462      4.0017328856      2.7494580775
 H      4.6448203736     -0.8371063426      7.3511220418
 H      0.9262173960      6.1398123009      7.5287168377
 H     -2.5739628924      3.5484778066      6.5641512598
 H      5.0216349484      4.3307632551      6.1694365114
 H      2.1963266933     -0.9595302975      2.2531163534
 H     -1.2835181639      7.3220841234      3.3781260316
 H     -1.3021713729      1.7681071053      2.5154912628
 H      6.9572732878      2.1572231727      3.3716597628
60
# ORCA AIMD Position Step 159, t=79.50 fs, E_Pot=-1525.78579333 Hartree, Unit is Angstrom
 H      3.1660919813      1.0085748460      0.5360394139
 H     -0.9004184291      6.8387737144      1.2400191454
 H     -0.7254133906      2.9928107505     -0.0115524673
 H      5.6641510663      1.9110854000      1.3768222222
 H      1.8117400079      3.7224085089      0.6562303784
 H      4.7444946839     -0.4647157937      4.8305096082
 H      1.7952378711      6.2100679319      4.7880410425
 H     -1.8489593411      4.1573367419      4.8097594807
 H      3.8846406711      3.9161782229      4.7182619549
 H      1.4593280678      1.7504049716      4.7179937357
 H      4.1511534001      0.3420673423     -0.3185823170
 H     -1.7567617764      6.4106454623      0.0583666021
 H      0.2284464632      1.8329373712      0.0892351623
 H      5.8277392744      2.5776635838      0.0309821273
 H      2.5412165057      2.9499065371     -0.4682784504
 H      3.9717972751     -0.4351962737      3.4569162586
 H      0.8096817764      6.3431325864      3.6561426037
 H     -1.7707477217      3.3548315251      3.5611994311
 H      5.1150291772      3.0369719367      4.1434937330
 H      1.7061214598      2.5307537831      3.4239238077
 H     -0.3603659891      6.0690926839      6.8114788757
 H     -2.9940659514      4.7845735981      7.2846923316
 H      1.0657014115      1.4069376005      7.1203829756
 H      5.1396907705      0.5584608654      7.1391942504
 H      2.4568424640      1.6208515445      6.6891750117
 H      5.2341478230      5.5018111612      7.1333442669
 H      1.9655591002      0.1522383481      3.3975868369
 H      5.8055230619      0.9871687506      3.6361041823
 H      3.2074371993      3.9883510243      2.7771480179
 H     -1.3618588809      5.7766754349      3.6371346166
 H      2.0102319219      4.9375929221      3.1640287697
 H     -0.2634602962      1.8846738660      3.5572268803
 O      3.2067897622      0.4989975789     -0.2295634830
 O     -1.1918537472      7.1668186616      0.3716734295
 O     -0.7150306468      2.0862598412      0.2940138409
 O      5.6084339236      1.7205571519      0.4032654009
 O      1.9834565934      3.7468180933     -0.2860676023
 O      4.9246211922     -0.4344909090      3.8793876062
 O      1.7976193811      6.3118856049      3.8342613911
 O     -2.1599418391      4.2390972318      3.9087792935
 O      4.6429444366      3.9952298384      4.1285658417
 O      1.3982890353      1.6130462374      3.7397538848
 O      4.5070354601     -0.0554363643      6.8302354895
 O      0.4980778330      6.4965520616      6.7469000506
 O     -2.2033356519      4.3672700800      6.8786379041
 O      4.8881119107      4.5867252847      7.0812786522
 O      1.5696998107      1.9669766495      6.5078730029
 O      2.3879159484     -0.6975831478      3.2023257369
 O     -0.7527727483      6.5211085634      3.4968517269
 O     -1.2689880336      1.9102117849      3.5231285916
 O      5.9925365779      1.9899360626      3.5548202580
 O      2.1636456929      3.9995935746      2.7437019741
 H      4.6314735246     -0.8346327229      7.3599287436
 H      0.9165302623      6.1343193040      7.5379301266
 H     -2.5687470073      3.5321623737      6.5636792859
 H      5.0088134051      4.3419690589      6.1625698666
 H      2.1918119722     -0.9571063066      2.2498782962
 H     -1.2957774851      7.3276435305      3.3682537649
 H     -1.2972845765      1.7791749668      2.5106287805
 H      6.9629116146      2.1584584878      3.3728954222
60
# ORCA AIMD Position Step 160, t=80.00 fs, E_Pot=-1525.79000380 Hartree, Unit is Angstrom
 H      3.1664567094      1.0243775037      0.5326583959
 H     -0.9028322405      6.8574212335      1.2154220881
 H     -0.7230777051      3.0018292316     -0.0386281470
 H      5.6499079226      1.8869412254      1.3665600949
 H      1.8241023174      3.7261631857      0.6633930515
 H      4.7463415327     -0.4765020532      4.8304768255
 H      1.8081310682      6.2120192073      4.7918501008
 H     -1.8590609663      4.1615925996      4.8208924940
 H      3.8821922642      3.9089366447      4.7294317946
 H      1.4633991708      1.7488696436      4.7113972798
 H      4.1623649003      0.3521126316     -0.3236750943
 H     -1.7584279781      6.4166010599      0.0662466577
 H      0.2318399303      1.8224701638      0.0993014745
 H      5.8414733270      2.5741500035      0.0213191055
 H      2.5504803973      2.9450515769     -0.4664150061
 H      3.9712078895     -0.4323699854      3.4625891497
 H      0.8193576037      6.3477739176      3.6646414375
 H     -1.7670540876      3.3658213443      3.5610392019
 H      5.1074532407      3.0401850379      4.1534883745
 H      1.7099961715      2.5126999599      3.4202168371
 H     -0.3806615371      6.0724085614      6.7978979999
 H     -2.9937269943      4.7804859935      7.2882931509
 H      1.0694819765      1.3965769712      7.1233096685
 H      5.1449333412      0.5731989997      7.1426380295
 H      2.4765656677      1.6293258248      6.6830399115
 H      5.2318808605      5.5084394792      7.1370168049
 H      1.9710145200      0.1524117857      3.4003596843
 H      5.8002937435      0.9862547396      3.6302082885
 H      3.2090065992      3.9883561892      2.7679021223
 H     -1.3586996430      5.7721324577      3.6334654157
 H      2.0102822767      4.9388066623      3.1684236666
 H     -0.2679219142      1.8800895194      3.5821860385
 O      3.2122471873      0.5042531767     -0.2311109614
 O     -1.1907360307      7.1691673420      0.3724511850
 O     -0.7098259090      2.0871718184      0.2939167322
 O      5.6006053234      1.7188587283      0.4047943051
 O      1.9778104677      3.7383605291     -0.2896139417
 O      4.9235051008     -0.4361360702      3.8813576391
 O      1.7984518497      6.3110882413      3.8355505097
 O     -2.1567300071      4.2380091093      3.9097603152
 O      4.6411072853      3.9920795168      4.1301191654
 O      1.3987842139      1.6121503648      3.7407721945
 O      4.5025221491     -0.0560782844      6.8292994924
 O      0.4947770142      6.4938012996      6.7460975536
 O     -2.2004719799      4.3684065074      6.8795225523
 O      4.8881445170      4.5876380313      7.0840380118
 O      1.5711888480      1.9646684123      6.5056113175
 O      2.3883423613     -0.7048991412      3.1996158132
 O     -0.7507449265      6.5209442879      3.4981434542
 O     -1.2700301377      1.9066490017      3.5237951658
 O      5.9906087497      1.9859686507      3.5564488674
 O      2.1618661820      3.9974276890      2.7379707478
 H      4.6185926260     -0.8346092674      7.3704048587
 H      0.9080551507      6.1285783217      7.5479916031
 H     -2.5639323866      3.5145459620      6.5626506731
 H      4.9969107518      4.3532059258      6.1527881980
 H      2.1877395513     -0.9531010134      2.2497529589
 H     -1.3074650764      7.3324250250      3.3587055183
 H     -1.2933755254      1.7904845547      2.5084939618
 H      6.9657085379      2.1587465057      3.3749888575
60
# ORCA AIMD Position Step 161, t=80.50 fs, E_Pot=-1525.79113401 Hartree, Unit is Angstrom
 H      3.1670371838      1.0438282633      0.5350169598
 H     -0.9035516173      6.8743782616      1.1951334410
 H     -0.7203435892      3.0111598851     -0.0656877440
 H      5.6357617401      1.8629410379      1.3571213861
 H      1.8367909482      3.7300935097      0.6730480946
 H      4.7477479269     -0.4882012493      4.8322812534
 H      1.8208044595      6.2139701231      4.7981159201
 H     -1.8689741340      4.1665993001      4.8340943030
 H      3.8788054961      3.9016927633      4.7407389961
 H      1.4670132654      1.7467679857      4.7065652027
 H      4.1748713600      0.3627523582     -0.3286199041
 H     -1.7590429534      6.4239842274      0.0745681915
 H      0.2333154170      1.8130505295      0.1095294013
 H      5.8551246814      2.5713391889      0.0112653643
 H      2.5586706219      2.9414662271     -0.4639745493
 H      3.9725481103     -0.4302261370      3.4695537711
 H      0.8283624190      6.3535372789      3.6729176679
 H     -1.7636962053      3.3771063115      3.5610861903
 H      5.0983962420      3.0473070177      4.1623924879
 H      1.7142664233      2.4958456005      3.4150867093
 H     -0.4015631278      6.0752704391      6.7837162142
 H     -2.9927455449      4.7763573727      7.2912453033
 H      1.0725826675      1.3865060646      7.1257591730
 H      5.1522748184      0.5895662286      7.1470558418
 H      2.4964872448      1.6379083303      6.6766405094
 H      5.2291638005      5.5138655158      7.1401685498
 H      1.9749866884      0.1549720668      3.4025643763
 H      5.7944615638      0.9849174559      3.6245912997
 H      3.2057433424      3.9883148908      2.7589413272
 H     -1.3577026341      5.7644823240      3.6298472632
 H      2.0102010235      4.9390779233      3.1725371380
 H     -0.2724794443      1.8751804563      3.6081529413
 O      3.2175378992      0.5092349243     -0.2329874789
 O     -1.1897908204      7.1715015932      0.3729610661
 O     -0.7045361260      2.0880021359      0.2938520365
 O      5.5928222264      1.7171272648      0.4063375611
 O      1.9722327997      3.7298194974     -0.2933036240
 O      4.9223576158     -0.4377017000      3.8831357357
 O      1.7993379274      6.3102588300      3.8367225615
 O     -2.1535512374      4.2369989960      3.9106373461
 O      4.6393645137      3.9887830323      4.1317282470
 O      1.3992673599      1.6113307686      3.7417889380
 O      4.4978550502     -0.0566847883      6.8281958589
 O      0.4915160058      6.4910639702      6.7453040395
 O     -2.1976628994      4.3695218959      6.8804411318
 O      4.8881695061      4.5885964280      7.0869119392
 O      1.5727297108      1.9623323950      6.5033960555
 O      2.3888651260     -0.7124318743      3.1967284388
 O     -0.7487417104      6.5210505010      3.4993442384
 O     -1.2709903770      1.9030259466      3.5241166721
 O      5.9889315600      1.9819711442      3.5579660839
 O      2.1604253038      3.9952641910      2.7322764409
 H      4.6061685190     -0.8364158541      7.3822698128
 H      0.9001856384      6.1228503893      7.5581304853
 H     -2.5588706243      3.4973162299      6.5617452009
 H      4.9858195149      4.3647211170      6.1410470803
 H      2.1840834759     -0.9476818779      2.2523238034
 H     -1.3178034304      7.3352716237      3.3496736678
 H     -1.2902389924      1.8019734831      2.5092034212
 H      6.9651809435      2.1579277079      3.3779998299
60
# ORCA AIMD Position Step 162, t=81.00 fs, E_Pot=-1525.78938702 Hartree, Unit is Angstrom
 H      3.1680052893      1.0658623459      0.5414979831
 H     -0.9013672823      6.8885311948      1.1824317215
 H     -0.7170008558      3.0189237667     -0.0920335702
 H      5.6219078702      1.8396422337      1.3501011988
 H      1.8499423850      3.7342387923      0.6840202816
 H      4.7487576169     -0.4997964011      4.8359124683
 H      1.8331938861      6.2159865100      4.8061815831
 H     -1.8789459639      4.1723265486      4.8484226515
 H      3.8751025412      3.8945782773      4.7515947550
 H      1.4702555223      1.7442200870      4.7041095239
 H      4.1879072950      0.3741742043     -0.3332291592
 H     -1.7589070586      6.4324174829      0.0831173366
 H      0.2331607996      1.8047857573      0.1197818183
 H      5.8684199532      2.5682545062      0.0015768414
 H      2.5656041291      2.9393436547     -0.4609645132
 H      3.9755935058     -0.4288374665      3.4776152509
 H      0.8358138193      6.3604181158      3.6808429399
 H     -1.7603709828      3.3880269275      3.5612440568
 H      5.0882505941      3.0576822193      4.1701343112
 H      1.7191435844      2.4810301440      3.4082892459
 H     -0.4216371603      6.0782173507      6.7690462085
 H     -2.9911724940      4.7721290417      7.2935277473
 H      1.0755756252      1.3770895009      7.1272938397
 H      5.1599356806      0.6056854209      7.1516449744
 H      2.5152328528      1.6468939012      6.6698831208
 H      5.2258892802      5.5178051244      7.1428171610
 H      1.9778526079      0.1590745909      3.4040658982
 H      5.7881346850      0.9830277200      3.6193265052
 H      3.1977416714      3.9882074896      2.7502682228
 H     -1.3584623439      5.7542425663      3.6261960495
 H      2.0100016142      4.9381192941      3.1761664437
 H     -0.2771586835      1.8699150862      3.6347618830
 O      3.2226944988      0.5139946966     -0.2351034961
 O     -1.1890754412      7.1739145539      0.3730096910
 O     -0.6991939110      2.0888618381      0.2937850687
 O      5.5850959232      1.7153926134      0.4077470252
 O      1.9667258862      3.7211831147     -0.2970614620
 O      4.9211890534     -0.4391873873      3.8847302340
 O      1.8003361573      6.3093891134      3.8378254804
 O     -2.1504107639      4.2361107746      3.9114749029
 O      4.6376528209      3.9853725558      4.1334341085
 O      1.3997209508      1.6105223034      3.7427863194
 O      4.4931492811     -0.0571914353      6.8270042081
 O      0.4882436234      6.4882905748      6.7445608717
 O     -2.1949397314      4.3705257761      6.8813574224
 O      4.8882024352      4.5896015714      7.0898254098
 O      1.5743726073      1.9599268569      6.5012615871
 O      2.3894619536     -0.7201073199      3.1937213323
 O     -0.7468238605      6.5214483584      3.5004518168
 O     -1.2718808561      1.8993526200      3.5241186335
 O      5.9875081957      1.9779621566      3.5593712724
 O      2.1593169325      3.9931277811      2.7266294890
 H      4.5941697219     -0.8391905903      7.3950584293
 H      0.8923352991      6.1173937688      7.5675795211
 H     -2.5530287437      3.4819527053      6.5615498749
 H      4.9754309130      4.3767718941      6.1285154559
 H      2.1807555585     -0.9411061883      2.2568628717
 H     -1.3262097182      7.3353481312      3.3413196075
 H     -1.2876652275      1.8135459046      2.5126414986
 H      6.9612002496      2.1559003919      3.3819163075
60
# ORCA AIMD Position Step 163, t=81.50 fs, E_Pot=-1525.78656881 Hartree, Unit is Angstrom
 H      3.1695724958      1.0890637866      0.5500548747
 H     -0.8954003832      6.8991564867      1.1795788718
 H     -0.7128665174      3.0236056631     -0.1170177538
 H      5.6085274245      1.8175008142      1.3468856067
 H      1.8636422575      3.7386139490      0.6950144078
 H      4.7494633554     -0.5112521044      4.8411089890
 H      1.8452041540      6.2181508461      4.8151842300
 H     -1.8892175918      4.1787334151      4.8628313049
 H      3.8716649464      3.8877193603      4.7614411736
 H      1.4732124247      1.7413396431      4.7043951528
 H      4.2007060049      0.3865545812     -0.3373145408
 H     -1.7584311261      6.4413661376      0.0916518628
 H      0.2318358025      1.7976994157      0.1298950505
 H      5.8810665213      2.5640172839     -0.0070187120
 H      2.5712092177      2.9387183700     -0.4574430450
 H      3.9799764784     -0.4282600946      3.4865095595
 H      0.8409621313      6.3684103568      3.6883305103
 H     -1.7567468379      3.3978859831      3.5614043577
 H      5.0775308904      3.0703700185      4.1766795796
 H      1.7247907315      2.4689163551      3.3996638600
 H     -0.4396126099      6.0816862629      6.7540384254
 H     -2.9891209388      4.7677872837      7.2951594774
 H      1.0789496293      1.3686256098      7.1275593812
 H      5.1663954678      0.6199316089      7.1557237303
 H      2.5316354029      1.6564717299      6.6627232319
 H      5.2220152465      5.5201497160      7.1450067771
 H      1.9800386216      0.1637651484      3.4047216957
 H      5.7814260304      0.9805257134      3.6144768002
 H      3.1854577303      3.9880036430      2.7418713305
 H     -1.3603901477      5.7421430680      3.6224014904
 H      2.0096622397      4.9357470918      3.1791541656
 H     -0.2820173561      1.8642703979      3.6616339046
 O      3.2277470184      0.5186072280     -0.2373426843
 O     -1.1886194035      7.1764847133      0.3724697424
 O     -0.6938407716      2.0898444550      0.2936857553
 O      5.5774399158      1.7136847916      0.4088896900
 O      1.9612879643      3.7124507836     -0.3008017937
 O      4.9200158192     -0.4405946989      3.8861699897
 O      1.8014988775      6.3084690700      3.8389174034
 O     -2.1473152311      4.2353917751      3.9123448732
 O      4.6359034705      3.9818982082      4.1352745320
 O      1.4001301130      1.6096716793      3.7437568082
 O      4.4885040106     -0.0575559155      6.8258031609
 O      0.4849139795      6.4854404572      6.7439010784
 O     -2.1923203318      4.3713455039      6.8822410310
 O      4.8882532748      4.5906464271      7.0926998560
 O      1.5761599491      1.9574207460      6.4992337288
 O      2.3901111041     -0.7278410064      3.1906694138
 O     -0.7450502702      6.5221231016      3.5014680663
 O     -1.2727118504      1.8956404980      3.5238424913
 O      5.9863191383      1.9739521187      3.5606682173
 O      2.1585141175      3.9910377457      2.7210380291
 H      4.5825570780     -0.8419741326      7.4081984018
 H      0.8839952025      6.1124280543      7.5756668718
 H     -2.5460244830      3.4696039137      6.5625166507
 H      4.9656579755      4.3895690479      6.1163921737
 H      2.1776092018     -0.9336958024      2.2623793534
 H     -1.3323164670      7.3321659220      3.3337610636
 H     -1.2854433699      1.8250795385      2.5184592229
 H      6.9539957592      2.1526289606      3.3866571665
60
# ORCA AIMD Position Step 164, t=82.00 fs, E_Pot=-1525.78432770 Hartree, Unit is Angstrom
 H      3.1719427579      1.1119718106      0.5586544114
 H     -0.8854425199      6.9061773535      1.1869589956
 H     -0.7077964473      3.0241290358     -0.1401012179
 H      5.5957755795      1.7968396626      1.3483408032
 H      1.8778990202      3.7432093461      0.7047896286
 H      4.7499946978     -0.5225106313      4.8474065555
 H      1.8567151788      6.2205465533      4.8241934601
 H     -1.8999824423      4.1857602850      4.8763102863
 H      3.8689650477      3.8812290912      4.7698109688
 H      1.4759633294      1.7382257054      4.7074759870
 H      4.2125788934      0.4000358240     -0.3407094077
 H     -1.7581016154      6.4501770219      0.0999331841
 H      0.2299301408      1.7917351369      0.1396946395
 H      5.8927982550      2.5579541207     -0.0138901373
 H      2.5755282951      2.9394749557     -0.4535148096
 H      3.9851979666     -0.4285327211      3.4959141567
 H      0.8433159812      6.3774979468      3.6953495243
 H     -1.7525015390      3.4060222644      3.5614739762
 H      5.0668823733      3.0841349279      4.1820337361
 H      1.7312775028      2.4598864968      3.3891828835
 H     -0.4544825107      6.0859830569      6.7388674729
 H     -2.9867528491      4.7633591142      7.2961947960
 H      1.0830775859      1.3613155721      7.1263179655
 H      5.1704991960      0.6310576113      7.1587765847
 H      2.5448110036      1.6667219543      6.6551672105
 H      5.2175628346      5.5209655630      7.1468094357
 H      1.9819555652      0.1681127245      3.4044137146
 H      5.7744482472      0.9774160269      3.6100985228
 H      3.1697306040      3.9876652400      2.7337289385
 H     -1.3628175495      5.7289997385      3.6183555661
 H      2.0091294618      4.9318800877      3.1813912083
 H     -0.2871325896      1.8582325078      3.6883829603
 O      3.2327211425      0.5231523327     -0.2395883969
 O     -1.1884051467      7.1792573008      0.3713321770
 O     -0.6885236865      2.0910210776      0.2935313484
 O      5.5698675074      1.7120291923      0.4096716368
 O      1.9559146155      3.7036325169     -0.3044398388
 O      4.9188604455     -0.4419272955      3.8875007115
 O      1.8028640897      6.3074885992      3.8400571241
 O     -2.1442728493      4.2348886513      3.9133159474
 O      4.6340460986      3.9784291579      4.1372797814
 O      1.4004859013      1.6087445174      3.7447037978
 O      4.4839951412     -0.0577576631      6.8246623914
 O      0.4814905742      6.4824850722      6.7433463908
 O     -2.1898097271      4.3719292544      6.8830684627
 O      4.8883259719      4.5917180537      7.0954619879
 O      1.5781236579      1.9547958819      6.4973276126
 O      2.3907946568     -0.7355484906      3.1876574190
 O     -0.7434712596      6.5230322444      3.5023978748
 O     -1.2734922305      1.8919016927      3.5233448588
 O      5.9853224197      1.9699429636      3.5618646393
 O      2.1579677454      3.9890076393      2.7155076926
 H      4.5712933176     -0.8438426338      7.4210919078
 H      0.8747677921      6.1081109706      7.5818773001
 H     -2.5376291579      3.4610447938      6.5649509383
 H      4.9564440029      4.4032424447      6.1057658830
 H      2.1744524876     -0.9258036021      2.2677044121
 H     -1.3359784231      7.3255792385      3.3270623584
 H     -1.2833632468      1.8364364869      2.5260796932
 H      6.9441504281      2.1481486975      3.3920771902
60
# ORCA AIMD Position Step 165, t=82.50 fs, E_Pot=-1525.78304849 Hartree, Unit is Angstrom
 H      3.1752766875      1.1333026827      0.5655650128
 H     -0.8720630849      6.9101673836      1.2029081469
 H     -0.7016901808      3.0198550935     -0.1608926997
 H      5.5837769296      1.7778452954      1.3545904341
 H      1.8926466121      3.7479987766      0.7122786997
 H      4.7505018726     -0.5334954174      4.8542124113
 H      1.8675966318      6.2232449847      4.8323308979
 H     -1.9113689799      4.1933268599      4.8879916112
 H      3.8673301682      3.8751977068      4.7763659056
 H      1.4785758149      1.7349592352      4.7130823249
 H      4.2229818324      0.4147133082     -0.3432871952
 H     -1.7584251216      6.4581511112      0.1077634679
 H      0.2281099260      1.7867651042      0.1490156215
 H      5.9034193884      2.5496485944     -0.0185474966
 H      2.5787196850      2.9413642777     -0.4493236463
 H      3.9906455850     -0.4296761211      3.5054639338
 H      0.8427306061      6.3876466768      3.7019301837
 H     -1.7473631315      3.4118922883      3.5614073736
 H      5.0570700808      3.0974805333      4.1862403646
 H      1.7385481506      2.4539792790      3.3769846318
 H     -0.4655543962      6.0912782806      6.7237133074
 H     -2.9842631301      4.7589049378      7.2967163251
 H      1.0882000281      1.3552420401      7.1234666871
 H      5.1714699543      0.6382178835      7.1604573983
 H      2.5541929375      1.6776300308      6.6472666866
 H      5.2126106894      5.5204860892      7.1483259022
 H      1.9839598271      0.1713024238      3.4030691778
 H      5.7673100867      0.9737634673      3.6062438651
 H      3.1518015016      3.9871511427      2.7258126916
 H     -1.3650863382      5.7156031503      3.6139734345
 H      2.0083248736      4.9265298079      3.1828202388
 H     -0.2925927008      1.8517947062      3.7146293024
 O      3.2376364401      0.5277018930     -0.2417406537
 O     -1.1883647514      7.1822394760      0.3697145954
 O     -0.6832914447      2.0924399005      0.2933076779
 O      5.5623891269      1.7104434731      0.4100549489
 O      1.9505985137      3.6947472697     -0.3078997757
 O      4.9177513426     -0.4431906815      3.8887792581
 O      1.8044491061      6.3064390340      3.8412962172
 O     -2.1412919531      4.2346423284      3.9144449696
 O      4.6320118204      3.9750521755      4.1394699595
 O      1.4007875856      1.6077294747      3.7456399702
 O      4.4796743066     -0.0577928659      6.8236375624
 O      0.4779483763      6.4794092463      6.7429058902
 O     -2.1874019216      4.3722467280      6.8838232710
 O      4.8884191106      4.5927986090      7.0980497865
 O      1.5802840544      1.9520475057      6.4955469890
 O      2.3914995977     -0.7431536926      3.1847704157
 O     -0.7421227651      6.5241134021      3.5032486233
 O     -1.2742297926      1.8881479590      3.5226950357
 O      5.9844548774      1.9659280369      3.5629714985
 O      2.1576051006      3.9870453898      2.7100414941
 H      4.5603461220     -0.8440122360      7.4331939797
 H      0.8643817048      6.1045231744      7.5858927409
 H     -2.5277538044      3.4566744614      6.5690168928
 H      4.9477550459      4.4178326518      6.0975199493
 H      2.1710724058     -0.9177734814      2.2716207014
 H     -1.3372769410      7.3157728645      3.3212236429
 H     -1.2812164602      1.8474799562      2.5347216490
 H      6.9325822334      2.1425670932      3.3979760259
60
# ORCA AIMD Position Step 166, t=83.00 fs, E_Pot=-1525.78237693 Hartree, Unit is Angstrom
 H      3.1796715212      1.1520538576      0.5694789674
 H     -0.8564051581      6.9120851051      1.2243830199
 H     -0.6944945110      3.0105641209     -0.1791644297
 H      5.5726322011      1.7606051425      1.3649675875
 H      1.9077498710      3.7529467013      0.7166533416
 H      4.7511378400     -0.5441149692      4.8608929011
 H      1.8777224735      6.2262968093      4.8388652351
 H     -1.9234297172      4.2013348817      4.8972211191
 H      3.8669177956      3.8696890378      4.7809196625
 H      1.4811027159      1.7316049681      4.7206683489
 H      4.2315437467      0.4306274835     -0.3449719844
 H     -1.7598541094      6.4646395564      0.1150161837
 H      0.2270396791      1.7826150063      0.1577177792
 H      5.9128292158      2.5389659510     -0.0206721211
 H      2.5810419781      2.9440290899     -0.4450447005
 H      3.9956366134     -0.4316972430      3.5147731897
 H      0.8394378883      6.3987896756      3.7081562739
 H     -1.7411542920      3.4151496955      3.5612405859
 H      5.0489267036      3.1087654144      4.1893704753
 H      1.7464126057      2.4509011669      3.3633808431
 H     -0.4724658099      6.0976133022      6.7087470063
 H     -2.9818570580      4.7545071668      7.2968233307
 H      1.0944198524      1.3503623584      7.1190436554
 H      5.1688777946      0.6409446401      7.1605726634
 H      2.5595413223      1.6891001132      6.6391122199
 H      5.2072844596      5.5190855867      7.1496837524
 H      1.9863280080      0.1726916422      3.4006736573
 H      5.7601125202      0.9696769281      3.6029648870
 H      3.1332978227      3.9864210495      2.7180933364
 H     -1.3666134233      5.7026423372      3.6092061630
 H      2.0071527440      4.9197855963      3.1834300085
 H     -0.2984778661      1.8449591565      3.7400032512
 O      3.2425059967      0.5323137981     -0.2437230968
 O     -1.1883974879      7.1854110123      0.3678171566
 O     -0.6781895507      2.0941258109      0.2930092307
 O      5.5550101917      1.7089336859      0.4100626268
 O      1.9453300851      3.6858208445     -0.3111193868
 O      4.9167211906     -0.4443916648      3.8900666953
 O      1.8062476220      6.3053149185      3.8426735964
 O     -2.1383789368      4.2346825779      3.9157702038
 O      4.6297381409      3.9718646513      4.1418537873
 O      1.4010433313      1.6066376139      3.7465837372
 O      4.4755706999     -0.0576693163      6.8227685473
 O      0.4742745020      6.4762111122      6.7425759941
 O     -2.1850821312      4.3722895559      6.8844965490
 O      4.8885268091      4.5938671061      7.1004154735
 O      1.5826495944      1.9491838753      6.4938842753
 O      2.3922168032     -0.7505950567      3.1820813536
 O     -0.7410221605      6.5252902674      3.5040298122
 O     -1.2749322242      1.8843899939      3.5219716654
 O      5.9836351817      1.9618932992      3.5640020626
 O      2.1573305530      3.9851535114      2.7046400139
 H      4.5496908088     -0.8418971072      7.4440582989
 H      0.8526953515      6.1016629907      7.5876068721
 H     -2.5164368335      3.4565226445      6.5747427811
 H      4.9395760528      4.4332890650      6.0922876661
 H      2.1672777418     -0.9098979157      2.2730465758
 H     -1.3365198726      7.3032465776      3.3161754648
 H     -1.2787979306      1.8580842017      2.5434472095
 H      6.9204965924      2.1360574088      3.4041113919
60
# ORCA AIMD Position Step 167, t=83.50 fs, E_Pot=-1525.78216933 Hartree, Unit is Angstrom
 H      3.1851540688      1.1675346359      0.5695303402
 H     -0.8398273427      6.9129475574      1.2479452657
 H     -0.6862033351      2.9964370693     -0.1948712896
 H      5.5624268107      1.7451540953      1.3781809459
 H      1.9230212820      3.7580177314      0.7173501846
 H      4.7520430617     -0.5542715525      4.8668532217
 H      1.8869861866      6.2297283835      4.8432698257
 H     -1.9361450737      4.2096737185      4.9035970683
 H      3.8677089232      3.8647360706      4.7834476221
 H      1.4835828432      1.7282160719      4.7294967202
 H      4.2380831831      0.4477628802     -0.3457441680
 H     -1.7627007307      6.4691603300      0.1216616510
 H      0.2272969532      1.7790945526      0.1657011451
 H      5.9210427848      2.5260525158     -0.0201300389
 H      2.5828314689      2.9470387400     -0.4408743398
 H      3.9994817137     -0.4345936237      3.5234656882
 H      0.8340056840      6.4108193528      3.7141478553
 H     -1.7338240982      3.4156977608      3.5611140364
 H      5.0432465037      3.1164287970      4.1915052017
 H      1.7545649084      2.4500936344      3.3488337640
 H     -0.4751891237      6.1049096989      6.6941160118
 H     -2.9797271863      4.7502574960      7.2966191277
 H      1.1017057734      1.3465077819      7.1132254113
 H      5.1626085947      0.6391187881      7.1590663577
 H      2.5609461493      1.7009700025      6.6308266584
 H      5.2017433991      5.5172445412      7.1510340966
 H      1.9892478528      0.1718361039      3.3972748213
 H      5.7529444912      0.9652873168      3.6003152267
 H      3.1161479165      3.9854404037      2.7105464973
 H     -1.3669256294      5.6906658166      3.6040443576
 H      2.0055096505      4.9118063540      3.1832541962
 H     -0.3048429098      1.8377363461      3.7641536055
 O      3.2473359046      0.5370300775     -0.2454837240
 O     -1.1883978162      7.1887375334      0.3658589274
 O     -0.6732549040      2.0960796078      0.2926394443
 O      5.5477291717      1.7074913929      0.4097689354
 O      1.9400979400      3.6768830776     -0.3140523777
 O      4.9158038550     -0.4455375205      3.8914213102
 O      1.8082312283      6.3041148902      3.8442129589
 O     -2.1355361415      4.2350240475      3.9173074290
 O      4.6271760675      3.9689608793      4.1444288329
 O      1.4012690353      1.6054977956      3.7475552643
 O      4.4716931453     -0.0574026606      6.8220783921
 O      0.4704687152      6.4729016487      6.7423410117
 O     -2.1828288839      4.3720720615      6.8850875027
 O      4.8886400491      4.5949010211      7.1025272184
 O      1.5852164495      1.9462254197      6.4923212291
 O      2.3929385231     -0.7578291982      3.1796383864
 O     -0.7401661412      6.5264767215      3.5047532866
 O     -1.2756080351      1.8806367958      3.5212566287
 O      5.9827702224      1.9578195129      3.5649705098
 O      2.1570304259      3.9833292353      2.6993013142
 H      4.5393088688     -0.8371398808      7.4533698583
 H      0.8396927226      6.0994443539      7.5871307867
 H     -2.5038337554      3.4602520314      6.5820258598
 H      4.9319024250      4.4494791184      6.0904281646
 H      2.1629492607     -0.9023844962      2.2712332836
 H     -1.3342390675      7.2887928364      3.3117731049
 H     -1.2759070661      1.8681453889      2.5512485505
 H      6.9092887710      2.1288407461      3.4102208058
60
# ORCA AIMD Position Step 168, t=84.00 fs, E_Pot=-1525.78265944 Hartree, Unit is Angstrom
 H      3.1916804190      1.1793601806      0.5652681548
 H     -0.8236037140      6.9136123665      1.2705134311
 H     -0.6768549898      2.9780470626     -0.2081753832
 H      5.5532362510      1.7315104257      1.3926116478
 H      1.9382406679      3.7631871524      0.7140809940
 H      4.7533341866     -0.5638710646      4.8716012603
 H      1.8953129806      6.2335411505      4.8452540039
 H     -1.9494340862      4.2182275717      4.9069866019
 H      3.8695069808      3.8603366485      4.7840911805
 H      1.4860438197      1.7248403540      4.7387423319
 H      4.2426087207      0.4660513939     -0.3456421973
 H     -1.7670704917      6.4714895839      0.1277762503
 H      0.2292888921      1.7760311801      0.1729180023
 H      5.9282054004      2.5113201801     -0.0169728347
 H      2.5844682782      2.9499332502     -0.4370185239
 H      4.0015681824     -0.4383583078      3.5312104325
 H      0.8272386528      6.4235863949      3.7200383186
 H     -1.7254587155      3.4136989829      3.5612759669
 H      5.0406406148      3.1192900824      4.1927129249
 H      1.7626243199      2.4508452314      3.3339055178
 H     -0.4740335897      6.1129781066      6.6799292942
 H     -2.9780298783      4.7462433220      7.2961975338
 H      1.1099036273      1.3433906764      7.1063153941
 H      5.1528479336      0.6329538775      7.1560122957
 H      2.5588295267      1.7130245390      6.6225594839
 H      5.1961612444      5.5154969611      7.1525471573
 H      1.9928184879      0.1684953083      3.3929800492
 H      5.7458803230      0.9607276622      3.5983502238
 H      3.1023673845      3.9841860356      2.7031558131
 H     -1.3656717396      5.6800711347      3.5985155763
 H      2.0032952108      4.9028042729      3.1823652312
 H     -0.3117039616      1.8301441548      3.7867576508
 O      3.2521252688      0.5418770568     -0.2469930568
 O     -1.1882784824      7.1921785387      0.3640298576
 O     -0.6685107508      2.0982763843      0.2922115653
 O      5.5405363060      1.7060924003      0.4092807457
 O      1.9348898506      3.6679644023     -0.3166696801
 O      4.9150298005     -0.4466351738      3.8928922819
 O      1.8103547281      6.3028420806      3.8459223335
 O     -2.1327606807      4.2356648442      3.9190486679
 O      4.6242994082      3.9664135893      4.1471825070
 O      1.4014856956      1.6043492469      3.7485730501
 O      4.4680313537     -0.0570147579      6.8215726427
 O      0.4665441661      6.4695039741      6.7421743525
 O     -2.1806159771      4.3716323877      6.8856041117
 O      4.8887483713      4.5958787504      7.1043697580
 O      1.5879676595      1.9432034587      6.4908300923
 O      2.3936556592     -0.7648320320      3.1774552243
 O     -0.7395309012      6.5275804942      3.5054335630
 O     -1.2762673218      1.8768953283      3.5206263806
 O      5.9817660518      1.9536855496      3.5658899240
 O      2.1565857403      3.9815648283      2.6940210937
 H      4.5291841076     -0.8296209265      7.4609639516
 H      0.8254731542      6.0976988439      7.5847879309
 H     -2.4902092612      3.4671555317      6.5906364488
 H      4.9247318207      4.4662020949      6.0920211089
 H      2.1580837244     -0.8953422636      2.2659196618
 H     -1.3311728855      7.2734534205      3.3077957285
 H     -1.2723494184      1.8775885354      2.5571743246
 H      6.9003730194      2.1211517346      3.4160544522
60
# ORCA AIMD Position Step 169, t=84.50 fs, E_Pot=-1525.78394542 Hartree, Unit is Angstrom
 H      3.1991383277      1.1874390391      0.5566255894
 H     -0.8087697866      6.9147058377      1.2896919652
 H     -0.6665256090      2.9563568612     -0.2194739663
 H      5.5451264225      1.7196914371      1.4066101361
 H      1.9531742003      3.7684497228      0.7068323310
 H      4.7550969089     -0.5728321320      4.8747895214
 H      1.9026678894      6.2377134501      4.8447755962
 H     -1.9631673820      4.2268823430      4.9075272599
 H      3.8719489731      3.8564500627      4.7831503137
 H      1.4885055276      1.7215255815      4.7475876590
 H      4.2453109090      0.4853774053     -0.3447619414
 H     -1.7728295135      6.4717097616      0.1335317635
 H      0.2331917002      1.7732994485      0.1793774681
 H      5.9345969917      2.4954151753     -0.0114252657
 H      2.5863311278      2.9522744941     -0.4336814406
 H      4.0014501594     -0.4429841372      3.5377570525
 H      0.8200564489      6.4369053472      3.7259522224
 H     -1.7162685053      3.4095385533      3.5620633134
 H      5.0413928886      3.1168356004      4.1930301692
 H      1.7701834559      2.4524059746      3.3191992819
 H     -0.4696452728      6.1215257624      6.6662436819
 H     -2.9768674894      4.7425362064      7.2956317015
 H      1.1187557637      1.3406214386      7.0987226320
 H      5.1400856664      0.6229998935      7.1516162855
 H      2.5539436763      1.7250071569      6.6144818487
 H      5.1907051216      5.5143684526      7.1544065005
 H      1.9970551887      0.1626261332      3.3879500940
 H      5.7389775378      0.9561131954      3.5971258781
 H      3.0937219168      3.9826510531      2.6959170088
 H     -1.3626194884      5.6711150296      3.5926784255
 H      2.0004234696      4.8930308248      3.1808677403
 H     -0.3190266804      1.8222070358      3.8075302854
 O      3.2568665532      0.5468657885     -0.2482422204
 O     -1.1879823002      7.1956889648      0.3624706234
 O     -0.6639633270      2.1006637985      0.2917501775
 O      5.5334132937      1.7046977361      0.4087179801
 O      1.9296944893      3.6590920967     -0.3189600559
 O      4.9144208429     -0.4476904533      3.8945147403
 O      1.8125631608      6.3015038494      3.8477947511
 O     -2.1300446421      4.2365880040      3.9209632628
 O      4.6211131775      3.9642562288      4.1500936960
 O      1.4017163289      1.6032339586      3.7496516112
 O      4.4645559063     -0.0565338673      6.8212385560
 O      0.4625283428      6.4660524564      6.7420403445
 O     -2.1784140818      4.3710332011      6.8860634920
 O      4.8888415570      4.5967825710      7.1059448173
 O      1.5908720363      1.9401584241      6.4893753024
 O      2.3943561803     -0.7715974966      3.1755081473
 O     -0.7390751357      6.5285077936      3.5060876866
 O     -1.2769223701      1.8731706512      3.5201422216
 O      5.9805425817      1.9494724272      3.5667699494
 O      2.1558926751      3.9798480017      2.6887927813
 H      4.5192982466     -0.8194580731      7.4668372777
 H      0.8102364802      6.0961820074      7.5810980640
 H     -2.4759293216      3.4761579505      6.6002239995
 H      4.9180585006      4.4832041144      6.0968650567
 H      2.1528149366     -0.8887945730      2.2573848885
 H     -1.3282189016      7.2584408854      3.3039561918
 H     -1.2679402706      1.8863668410      2.5604752307
 H      6.8949530363      2.1131930932      3.4214144469
60
# ORCA AIMD Position Step 170, t=85.00 fs, E_Pot=-1525.78550458 Hartree, Unit is Angstrom
 H      3.2073493518      1.1919711844      0.5439051246
 H     -0.7960839838      6.9166386953      1.3038061666
 H     -0.6553179426      2.9327014913     -0.2294227220
 H      5.5381498622      1.7097115105      1.4187170717
 H      1.9675935926      3.7738289193      0.6958664505
 H      4.7573824337     -0.5810941198      4.8762395495
 H      1.9090600528      6.2422038619      4.8420407690
 H     -1.9771823575      4.2355326033      4.9056176657
 H      3.8745278812      3.8529955367      4.7810649099
 H      1.4909835830      1.7183231313      4.7552977141
 H      4.2465442189      0.5055847864     -0.3432539439
 H     -1.7796214289      6.4701928856      0.1391669358
 H      0.2389275699      1.7708391623      0.1851428835
 H      5.9406243878      2.4791665966     -0.0038580015
 H      2.5887455013      2.9536993596     -0.4310539054
 H      3.9989242928     -0.4484657480      3.5429632330
 H      0.8133793945      6.4505659071      3.7319885785
 H     -1.7065563751      3.4037554303      3.5638656754
 H      5.0453810940      3.1093590168      4.1924565264
 H      1.7768518302      2.4540795226      3.3053044937
 H     -0.4629959986      6.1301668414      6.6530509677
 H     -2.9762775526      4.7391823792      7.2949657885
 H      1.1279314385      1.3377379072      7.0909274753
 H      5.1251345456      0.6101597339      7.1462247516
 H      2.5473527187      1.7366332053      6.6067808675
 H      5.1855132379      5.5143072047      7.1568016613
 H      2.0018956166      0.1543724083      3.3823913058
 H      5.7322756226      0.9515268438      3.5966967102
 H      3.0913307252      3.9808487071      2.6888424780
 H     -1.3576459460      5.6639315911      3.5866147806
 H      1.9968331713      4.8827617531      3.1788905259
 H     -0.3267207053      1.8139542621      3.8262334808
 O      3.2615465248      0.5519916842     -0.2492421740
 O     -1.1874835300      7.1992193080      0.3612721171
 O     -0.6596011384      2.1031619829      0.2912928874
 O      5.5263340500      1.7032569987      0.4081978895
 O      1.9245035701      3.6502864149     -0.3209307346
 O      4.9139855889     -0.4487075909      3.8963064491
 O      1.8147986159      6.3001110464      3.8498093938
 O     -2.1273763605      4.2377650607      3.9230007152
 O      4.6176572062      3.9624742271      4.1531342595
 O      1.4019832137      1.6021905508      3.7508002183
 O      4.4612173863     -0.0559960375      6.8210441666
 O      0.4584638924      6.4625912051      6.7418970924
 O     -2.1761924739      4.3703604024      6.8864913215
 O      4.8889113140      4.5976019278      7.1072713315
 O      1.5938833957      1.9371371729      6.4879160456
 O      2.3950254815     -0.7781348314      3.1737408481
 O     -0.7387464791      6.5291709194      3.5067340384
 O     -1.2775877669      1.8694665299      3.5198412480
 O      5.9790491446      1.9451672722      3.5676146432
 O      2.1548867999      3.9781625098      2.6836076181
 H      4.5096259391     -0.8069995785      7.4711544864
 H      0.7942599992      6.0945866282      7.5767437778
 H     -2.4614442453      3.4858466696      6.6103344283
 H      4.9118694032      4.5001950058      6.1044804855
 H      2.1474022049     -0.8827109698      2.2463782666
 H     -1.3263389411      7.2450042450      3.2999285447
 H     -1.2625107999      1.8944540396      2.5607398623
 H      6.8937776861      2.1050892072      3.4261922461
60
# ORCA AIMD Position Step 171, t=85.50 fs, E_Pot=-1525.78630105 Hartree, Unit is Angstrom
 H      3.2160709518      1.1934595978      0.5277819253
 H     -0.7860497005      6.9196530070      1.3118034087
 H     -0.6433451351      2.9087243952     -0.2389324278
 H      5.5323407204      1.7015719863      1.4277869737
 H      1.9812946690      3.7793854442      0.6817197779
 H      4.7602065699     -0.5886232675      4.8759522211
 H      1.9145435109      6.2469554647      4.8374939202
 H     -1.9912991113      4.2440880976      4.9018958806
 H      3.8766324760      3.8498545692      4.7783794714
 H      1.4934923846      1.7152899244      4.7612722254
 H      4.2467980437      0.5264850046     -0.3413182343
 H     -1.7869269048      6.4675286313      0.1449479549
 H      0.2461879335      1.7686579356      0.1903216812
 H      5.9467933532      2.4635066872      0.0052578117
 H      2.5919325050      2.9539665112     -0.4293030476
 H      3.9940690325     -0.4547985305      3.5468064647
 H      0.8080403173      6.4643460926      3.7382110943
 H     -1.6966771964      3.3969615669      3.5670817272
 H      5.0521042011      3.0978787538      4.1909674625
 H      1.7822878025      2.4552813517      3.2927551908
 H     -0.4553431345      6.1384410499      6.6402697111
 H     -2.9762326488      4.7361969042      7.2942115911
 H      1.1370696364      1.3342498251      7.0834329804
 H      5.1091434994      0.5956977453      7.1403310204
 H      2.5403770718      1.7476075929      6.5996514750
 H      5.1806757938      5.5156203522      7.1599188507
 H      2.0072066663      0.1440524901      3.3765474506
 H      5.7257955923      0.9470112016      3.5971131565
 H      3.0953684385      3.9788144160      2.6819674778
 H     -1.3507251967      5.6585536722      3.5804214424
 H      1.9924953806      4.8722834035      3.1765779866
 H     -0.3346392626      1.8054179403      3.8426841034
 O      3.2661478610      0.5572332265     -0.2500242542
 O     -1.1867827519      7.2027172432      0.3604840974
 O     -0.6553974555      2.1056673610      0.2908907787
 O      5.5192668425      1.7017139793      0.4078242841
 O      1.9193139631      3.6415571732     -0.3226078216
 O      4.9137170136     -0.4496890111      3.8982663964
 O      1.8170056382      6.2986770110      3.8519329083
 O     -2.1247422199      4.2391604518      3.9250947644
 O      4.6140019905      3.9610099348      4.1562704563
 O      1.4023058842      1.6012503335      3.7520222855
 O      4.4579457985     -0.0554465185      6.8209378666
 O      0.4544082551      6.4591714746      6.7417005089
 O     -2.1739212235      4.3697176253      6.8869196348
 O      4.8889526515      4.5983362623      7.1083852756
 O      1.5969413642      1.9341890628      6.4864098188
 O      2.3956484485     -0.7844653858      3.1720751858
 O     -0.7384913446      6.5294990838      3.5073897191
 O     -1.2782800124      1.8657863316      3.5197309055
 O      5.9772755652      1.9407659734      3.5684213867
 O      2.1535612569      3.9764889368      2.6784546998
 H      4.5001304214     -0.7928086610      7.4742484730
 H      0.7778657980      6.0925652424      7.5725137719
 H     -2.4472540129      3.4945647592      6.6204479020
 H      4.9061422720      4.5168670345      6.1141209931
 H      2.1421910198     -0.8770449075      2.2339555641
 H     -1.3264124090      7.2342403846      3.2953975298
 H     -1.2559175067      1.9018318347      2.5579768153
 H      6.8969664408      2.0968566904      3.4303901608
60
# ORCA AIMD Position Step 172, t=86.00 fs, E_Pot=-1525.78553348 Hartree, Unit is Angstrom
 H      3.2250005696      1.1927276477      0.5093141527
 H     -0.7789509973      6.9238657461      1.3131375162
 H     -0.6307118519      2.8862246261     -0.2491052837
 H      5.5277103914      1.6952496487      1.4330393928
 H      1.9941157901      3.7852252133      0.6651947180
 H      4.7635509450     -0.5954168432      4.8741068909
 H      1.9192143480      6.2519012206      4.8317913643
 H     -2.0053381766      4.2524797530      4.8971965309
 H      3.8776087274      3.8468786496      4.7756873669
 H      1.4960477645      1.7124887350      4.7650770255
 H      4.2466527726      0.5478666977     -0.3391955861
 H     -1.7941468951      6.4644219335      0.1511286495
 H      0.2544949895      1.7668190827      0.1950507285
 H      5.9536534549      2.4493561106      0.0154163228
 H      2.5959702305      2.9529860136     -0.4285636126
 H      3.9872337927     -0.4619750731      3.5493766428
 H      0.8047293887      6.4780255939      3.7446447856
 H     -1.6869986185      3.3897694061      3.5720784417
 H      5.0608019622      3.0838740572      4.1885374069
 H      1.7862178853      2.4555653843      3.2820026804
 H     -0.4481356844      6.1458480307      6.6277467286
 H     -2.9766498930      4.7335614959      7.2933499617
 H      1.1458321918      1.3296962410      7.0767045865
 H      5.0935697419      0.5812027671      7.1345626909
 H      2.5344779680      1.7576494737      6.5932839536
 H      5.1762221548      5.5184261712      7.1639302907
 H      2.0127924308      0.1321434469      3.3706912807
 H      5.7195406494      0.9425689304      3.5984189035
 H      3.1050153843      3.9766058393      2.6753556696
 H     -1.3419180913      5.6549295733      3.5742019727
 H      1.9874171783      4.8618793439      3.1740807766
 H     -0.3425858456      1.7966304622      3.8567592908
 O      3.2706515476      0.5625502364     -0.2506413944
 O     -1.1858993859      7.2061313634      0.3601249591
 O     -0.6513153561      2.1080629906      0.2906053411
 O      5.5121781235      1.7000145725      0.4076800703
 O      1.9141289947      3.6329014336     -0.3240361975
 O      4.9135930431     -0.4506354132      3.9003753378
 O      1.8191348645      6.2972164042      3.8541213282
 O     -2.1221282190      4.2407356348      3.9271686271
 O      4.6102373704      3.9597785270      4.1594650022
 O      1.4026999288      1.6004354229      3.7533151914
 O      4.4546524876     -0.0549392419      6.8208498013
 O      0.4504306227      6.4558473274      6.7414095509
 O     -2.1715744076      4.3692144071      6.8873824709
 O      4.8889647866      4.5989966658      7.1093382336
 O      1.5999753157      1.9313607602      6.4848169662
 O      2.3962122664     -0.7906197335      3.1704239523
 O     -0.7382664333      6.5294506966      3.5080668849
 O     -1.2790165522      1.8621338551      3.5197889143
 O      5.9752541423      1.9362735679      3.5691814082
 O      2.1519695397      3.9748057124      2.6733211176
 H      4.4907604472     -0.7776332114      7.4766102699
 H      0.7613769693      6.0897642871      7.5692174088
 H     -2.4338477879      3.5006001477      6.6300455342
 H      4.9008454057      4.5329165336      6.1248061480
 H      2.1375609902     -0.8717637797      2.2212835534
 H     -1.3290621882      7.2268853408      3.2901232764
 H     -1.2480537407      1.9084777208      2.5526148320
 H      6.9039770662      2.0884047174      3.4341174512
60
# ORCA AIMD Position Step 173, t=86.50 fs, E_Pot=-1525.78346276 Hartree, Unit is Angstrom
 H      3.2337856189      1.1909215640      0.4899333649
 H     -0.7748786943      6.9292974777      1.3076857020
 H     -0.6174994547      2.8668924781     -0.2610786398
 H      5.5242449496      1.6906875773      1.4340692448
 H      2.0059549347      3.7915048099      0.6473311375
 H      4.7673662118     -0.6015050075      4.8710493442
 H      1.9232036754      6.2569702995      4.8257536795
 H     -2.0191396784      4.2606643312      4.8924772128
 H      3.8768448570      3.8439030047      4.7735531898
 H      1.4986693774      1.7099877033      4.7664619610
 H      4.2467214243      0.5695070980     -0.3371538666
 H     -1.8006858552      6.4615912188      0.1579186195
 H      0.2632835710      1.7654202516      0.1994803672
 H      5.9617140664      2.4374803795      0.0261576179
 H      2.6007778444      2.9508242578     -0.4289316236
 H      3.9789824047     -0.4699806019      3.5508523672
 H      0.8039647844      6.4913980203      3.7512772322
 H     -1.6778692909      3.3827381100      3.5791592649
 H      5.0706085009      3.0689676219      4.1851608683
 H      1.7884460631      2.4546294003      3.2733996262
 H     -0.4428440447      6.1519037683      6.6152753134
 H     -2.9774080029      4.7312262164      7.2923366132
 H      1.1539610068      1.3237101584      7.0711050408
 H      5.0800608001      0.5684561543      7.1296273101
 H      2.5310678800      1.7665236798      6.5878465627
 H      5.1721181402      5.5226359002      7.1689830332
 H      2.0184052242      0.1192573860      3.3651150946
 H      5.7134974515      0.9381697658      3.6006485320
 H      3.1186842082      3.9743003292      2.6691005244
 H     -1.3313652618      5.6529324325      3.5680592564
 H      1.9816412752      4.8518143194      3.1715445099
 H     -0.3503273588      1.7876218943      3.8683982818
 O      3.2750398077      0.5678829862     -0.2511684129
 O     -1.1848648209      7.2094158002      0.3601889925
 O     -0.6473137661      2.1102365222      0.2904996469
 O      5.5050380825      1.6981163597      0.4078214492
 O      1.9089583581      3.6243028894     -0.3252780139
 O      4.9135798973     -0.4515460164      3.9025981229
 O      1.8211453305      6.2957440215      3.8563230619
 O     -2.1195209056      4.2424523343      3.9291415969
 O      4.6064574985      3.9586868716      4.1626806782
 O      1.4031763916      1.5997582722      3.7546702675
 O      4.4512375728     -0.0545318969      6.8206970711
 O      0.4466045993      6.4526691723      6.7409920977
 O     -2.1691342745      4.3689478218      6.8879096365
 O      4.8889513354      4.5996055258      7.1101938787
 O      1.6029127336      1.9286901417      6.4831057638
 O      2.3967088460     -0.7966351984      3.1687022619
 O     -0.7380482826      6.5290229326      3.5087692679
 O     -1.2798144149      1.8585137312      3.5199687226
 O      5.9730515915      1.9317023038      3.5698817936
 O      2.1502111331      3.9730904930      2.6681924937
 H      4.4814495441     -0.7623505337      7.4788597716
 H      0.7450657239      6.0858697124      7.5675723097
 H     -2.4216207762      3.5024741906      6.6387015517
 H      4.8959389220      4.5480678806      6.1353881293
 H      2.1338767680     -0.8668653637      2.2094674138
 H     -1.3345092873      7.2231538755      3.2840014054
 H     -1.2388606008      1.9143585216      2.5454189125
 H      6.9137319112      2.0795650916      3.4375618686
60
# ORCA AIMD Position Step 174, t=87.00 fs, E_Pot=-1525.78152110 Hartree, Unit is Angstrom
 H      3.2420429269      1.1894607750      0.4713715849
 H     -0.7737378716      6.9358832928      1.2957162237
 H     -0.6037648820      2.8519738500     -0.2757806728
 H      5.5219049353      1.6877900072      1.4308439651
 H      2.0167806591      3.7984294294      0.6293390601
 H      4.7715770481     -0.6069495019      4.8672677830
 H      1.9266662957      6.2620945390      4.8202890808
 H     -2.0325807181      4.2686260466      4.8887106755
 H      3.8738680661      3.8407652150      4.7724259387
 H      1.5013827336      1.7078592788      4.7653712875
 H      4.2475767762      0.5911838568     -0.3354688371
 H     -1.8060210864      6.4596844362      0.1654614824
 H      0.2719861235      1.7645691127      0.2037591597
 H      5.9713440205      2.4283481388      0.0371440276
 H      2.6061254718      2.9476841621     -0.4304608946
 H      3.9700085210     -0.4787888431      3.5514680878
 H      0.8060802698      6.5042811588      3.7580623262
 H     -1.6695968222      3.3763407024      3.5885431889
 H      5.0806836828      3.0546678355      4.1808642362
 H      1.7888561596      2.4523078967      3.2671924662
 H     -0.4407239133      6.1562132058      6.6026345255
 H     -2.9783695209      4.7291151320      7.2911116369
 H      1.1613266922      1.3160768185      7.0668390961
 H      5.0702092779      0.5591701195      7.1261995898
 H      2.5312680465      1.7740715751      6.5834655587
 H      5.1682737092      5.5279684824      7.1751880351
 H      2.0237615496      0.1061048036      3.3601195196
 H      5.7076384046      0.9337623029      3.6038255652
 H      3.1344036670      3.9719889188      2.6633203470
 H     -1.3192819003      5.6523647033      3.5620891604
 H      1.9752417852      4.8423202733      3.1690987188
 H     -0.3576114793      1.7784179293      3.8776000254
 O      3.2792992751      0.5731545503     -0.2516986667
 O     -1.1837175866      7.2125348138      0.3606498493
 O     -0.6433528223      2.1121028346      0.2906238951
 O      5.4978271726      1.6959978670      0.4082732603
 O      1.9038167623      3.6157332699     -0.3264086275
 O      4.9136370978     -0.4524189372      3.9048873896
 O      1.8230060023      6.2942736153      3.8584834863
 O     -2.1169077510      4.2442747908      3.9309370737
 O      4.6027464325      3.9576483781      4.1658851642
 O      1.4037415666      1.5992220118      3.7560727744
 O      4.4476051459     -0.0542749176      6.8203943962
 O      0.4429964577      6.4496761493      6.7404298465
 O     -2.1665950894      4.3689815003      6.8885202197
 O      4.8889197425      4.6001941926      7.1110215945
 O      1.6056914448      1.9262006268      6.4812570293
 O      2.3971361348     -0.8025533632      3.1668358142
 O     -0.7378370941      6.5282542730      3.5094903966
 O     -1.2806887513      1.8549312796      3.5202085416
 O      5.9707544746      1.9270683578      3.5705082162
 O      2.1484074945      3.9713217726      2.6630539473
 H      4.4721194561     -0.7478794258      7.4816878508
 H      0.7291054584      6.0806550197      7.5680869224
 H     -2.4107913583      3.4992674731      6.6461760181
 H      4.8913777027      4.5620959547      6.1446637524
 H      2.1314515434     -0.8623817369      2.1994296639
 H     -1.3425167179      7.2226941174      3.2770947266
 H     -1.2283346271      1.9194313564      2.5373539347
 H      6.9248468825      2.0701378807      3.4409483111
60
# ORCA AIMD Position Step 175, t=87.50 fs, E_Pot=-1525.78141538 Hartree, Unit is Angstrom
 H      3.2493893655      1.1898922504      0.4554768362
 H     -0.7752338829      6.9434674175      1.2779066837
 H     -0.5895582905      2.8419746131     -0.2936660820
 H      5.5206280218      1.6864210083      1.4237007849
 H      2.0266324140      3.8062385469      0.6124805474
 H      4.7760893346     -0.6118386007      4.8633531315
 H      1.9297647708      6.2672144254      4.8162855897
 H     -2.0455885595      4.2763741493      4.8867478278
 H      3.8684347951      3.8373246387      4.7725596926
 H      1.5042210109      1.7061789554      4.7619485076
 H      4.2496730796      0.6126865948     -0.3344006362
 H     -1.8097524966      6.4592202595      0.1738234146
 H      0.2801034196      1.7643615308      0.2080222124
 H      5.9826817918      2.4220315524      0.0482090680
 H      2.6116688688      2.9438650943     -0.4331625167
 H      3.9610453497     -0.4883597240      3.5514804959
 H      0.8112212255      6.5165266178      3.7649252623
 H     -1.6624340077      3.3709477283      3.6003539344
 H      5.0902953469      3.0422192017      4.1757075015
 H      1.7874107591      2.4485620613      3.2635173892
 H     -0.4425620311      6.1585438639      6.5896447889
 H     -2.9794028626      4.7271349641      7.2896103978
 H      1.1679555438      1.3067707171      7.0639220370
 H      5.0651983830      0.5546200376      7.1247588208
 H      2.5356738775      1.7802321487      6.5802074818
 H      5.1645589934      5.5339950701      7.1826117272
 H      2.0285655754      0.0934384540      3.3559989871
 H      5.7019249377      0.9292892873      3.6079610382
 H      3.1501897373      3.9697679899      2.6581473456
 H     -1.3059541748      5.6529566104      3.5563756004
 H      1.9683179480      4.8335811914      3.1668452540
 H     -0.3641882253      1.7690385451      3.8844169039
 O      3.2834237303      0.5782791769     -0.2523339436
 O     -1.1825011178      7.2154667938      0.3614601721
 O     -0.6393971792      2.1136239970      0.2909994585
 O      5.4905418940      1.6936649976      0.4090261036
 O      1.8987216948      3.6071558283     -0.3275091720
 O      4.9137226928     -0.4532516506      3.9071883102
 O      1.8246970782      6.2928167753      3.8605514100
 O     -2.1142771837      4.2461713665      3.9324917753
 O      4.5991671747      3.9565910888      4.1690561279
 O      1.4043969461      1.5988210435      3.7575020145
 O      4.4436851446     -0.0541958068      6.8198699548
 O      0.4396512491      6.4468889433      6.7397208581
 O     -2.1639648436      4.3693297321      6.8892183026
 O      4.8888800684      4.6007990818      7.1118871324
 O      1.6082727132      1.9238974736      6.4792670906
 O      2.3974980565     -0.8084168826      3.1647661523
 O     -0.7376531343      6.5272185839      3.5102145356
 O     -1.2816514027      1.8513919143      3.5204413040
 O      5.9684536716      1.9223883713      3.5710474036
 O      2.1466789990      3.9694807240      2.6578914816
 H      4.4626874250     -0.7350607164      7.4857660656
 H      0.7135388753      6.0740217236      7.5709643597
 H     -2.4013526028      3.4908620924      6.6524715343
 H      4.8871159713      4.5748434772      6.1515308432
 H      2.1305246359     -0.8583745634      2.1918403457
 H     -1.3524507532      7.2246804054      3.2696206966
 H     -1.2165302506      1.9236510668      2.5294364362
 H      6.9358756936      2.0599346432      3.4444994364
60
# ORCA AIMD Position Step 176, t=88.00 fs, E_Pot=-1525.78384848 Hartree, Unit is Angstrom
 H      3.2554799840      1.1936286522      0.4439023145
 H     -0.7788368133      6.9517834541      1.2554086417
 H     -0.5749519680      2.8365536135     -0.3145516983
 H      5.5203345904      1.6864069396      1.4133467157
 H      2.0356034271      3.8151734792      0.5979037421
 H      4.7807996182     -0.6162778373      4.8599412998
 H      1.9326504901      6.2722825034      4.8144831826
 H     -2.0581439738      4.2839363521      4.8871779282
 H      3.8605848456      3.8334779582      4.7739686848
 H      1.5072261297      1.7050235160      4.7565338590
 H      4.2532757028      0.6338256826     -0.3341685139
 H     -1.8116333096      6.4605523480      0.1829896052
 H      0.2872539111      1.7648652318      0.2123831406
 H      5.9955879577      2.4181896613      0.0593586007
 H      2.6169984184      2.9397142051     -0.4370064394
 H      3.9527910611     -0.4986385638      3.5511414155
 H      0.8193417088      6.5280285892      3.7717675886
 H     -1.6565718141      3.3668227494      3.6146170427
 H      5.0988520753      3.0325513603      4.1697808093
 H      1.7841481276      2.4434695366      3.2623986740
 H     -0.4484974183      6.1588717863      6.5762236387
 H     -2.9803995128      4.7251850004      7.2877735960
 H      1.1740260338      1.2959603494      7.0621817659
 H      5.0654633960      0.5553024380      7.1254364740
 H      2.5442174620      1.7850428951      6.5780702293
 H      5.1608240771      5.5401998000      7.1912704263
 H      2.0325387364      0.0819804265      3.3530244069
 H      5.6963103257      0.9246991676      3.6130521879
 H      3.1642989391      3.9677303944      2.6537137329
 H     -1.2917345961      5.6543631322      3.5509871597
 H      1.9609865829      4.8257224281      3.1648488535
 H     -0.3698305108      1.7594975520      3.8889458272
 O      3.2874157866      0.5831780671     -0.2531665100
 O     -1.1812640718      7.2182076628      0.3625478307
 O     -0.6354173007      2.1148170145      0.2916089542
 O      5.4831978472      1.6911520742      0.4100363399
 O      1.8936914053      3.5985305634     -0.3286559892
 O      4.9137974237     -0.4540415425      3.9094440495
 O      1.8262113718      6.2913819916      3.8624867370
 O     -2.1116187542      4.2481156892      3.9337646184
 O      4.5957560923      3.9554599485      4.1721845660
 O      1.4051392616      1.5985416249      3.7589317478
 O      4.4394540244     -0.0542858597      6.8190820259
 O      0.4365818571      6.4443057139      6.7388787338
 O     -2.1612633949      4.3699543136      6.8899929337
 O      4.8888434039      4.6014574449      7.1128418135
 O      1.6106501032      1.9217674271      6.4771481630
 O      2.3978032548     -0.8142654311      3.1624536557
 O     -0.7375278521      6.5260133863      3.5109197813
 O     -1.2827097717      1.8479003873      3.5206031537
 O      5.9662319825      1.9176768933      3.5714888429
 O      2.1451294071      3.9675528792      2.6526933949
 H      4.4530774451     -0.7245260015      7.4916338626
 H      0.6982748303      6.0660185998      7.5760601994
 H     -2.3930858180      3.4779804808      6.6578232824
 H      4.8831138179      4.5862271516      6.1551648828
 H      2.1312503532     -0.8549259260      2.1870863889
 H     -1.3634273974      7.2279988876      3.2619034070
 H     -1.2035574649      1.9269798457      2.5226111685
 H      6.9455058521      2.0488083068      3.4484067599
60
# ORCA AIMD Position Step 177, t=88.50 fs, E_Pot=-1525.78788645 Hartree, Unit is Angstrom
 H      3.2600461867      1.2016131957      0.4377266258
 H     -0.7837327869      6.9604256936      1.2299350448
 H     -0.5600631301      2.8346610420     -0.3376388921
 H      5.5209362754      1.6875426156      1.4008518958
 H      2.0438066582      3.8254271196      0.5864537558
 H      4.7856058857     -0.6203764579      4.8576399416
 H      1.9354442982      6.2772635931      4.8153486931
 H     -2.0702739267      4.2913493348      4.8902196929
 H      3.8506456223      3.8291659440      4.7764274870
 H      1.5104490470      1.7044695450      4.7496574775
 H      4.2584175927      0.6544377637     -0.3349290962
 H     -1.8115888944      6.4638479665      0.1928660848
 H      0.2932009628      1.7661087655      0.2169305432
 H      6.0096596918      2.4161418540      0.0707252845
 H      2.6216940268      2.9355776766     -0.4419259465
 H      3.9458529741     -0.5095572797      3.5506781372
 H      0.8302019210      6.5387333187      3.7784721805
 H     -1.6521351997      3.3641203987      3.6312622920
 H      5.1059063813      3.0262863232      4.1631978704
 H      1.7791809168      2.4372248034      3.2637438286
 H     -0.4579904883      6.1573818936      6.5624193511
 H     -2.9812842804      4.7231673839      7.2855550655
 H      1.1798368604      1.2839812952      7.0612917188
 H      5.0705460450      0.5607962914      7.1279574049
 H      2.5561841766      1.7886202515      6.5769867030
 H      5.1569190247      5.5460465713      7.2011300148
 H      2.0354563112      0.0723299349      3.3514217571
 H      5.6907443762      0.9199610014      3.6190815619
 H      3.1753513729      3.9659583888      2.6501377911
 H     -1.2770342749      5.6561620577      3.5459755147
 H      1.9533757445      4.8188000171      3.1631284507
 H     -0.3743598971      1.7498035075      3.8913169833
 O      3.2912868970      0.5877999566     -0.2542565796
 O     -1.1800622274      7.2207739240      0.3638103512
 O     -0.6313897800      2.1157458083      0.2923977946
 O      5.4758286993      1.6885170083      0.4112295145
 O      1.8887436116      3.5898205958     -0.3299083933
 O      4.9138275345     -0.4547866933      3.9116017068
 O      1.8275557144      6.2899739316      3.8642679839
 O     -2.1089237090      4.2500878102      3.9347433583
 O      4.5925223713      3.9542160441      4.1752755373
 O      1.4059604294      1.5983620336      3.7603310865
 O      4.4349433052     -0.0544985236      6.8180297157
 O      0.4337655410      6.4419025041      6.7379291258
 O     -2.1585175836      4.3707753815      6.8908220749
 O      4.8888201830      4.6022034668      7.1139128746
 O      1.6128504200      1.9197816451      6.4749259539
 O      2.3980630251     -0.8201305448      3.1598793940
 O     -0.7374936082      6.5247465535      3.5115821199
 O     -1.2838656292      1.8444601258      3.5206396125
 O      5.9641562733      1.9129446025      3.5718255384
 O      2.1438384999      3.9655294866      2.6474516380
 H      4.4432315509     -0.7165854740      7.4995864212
 H      0.6831140187      6.0568355674      7.5829048419
 H     -2.3856290503      3.4620024082      6.6626282498
 H      4.8793446050      4.5962323438      6.1551719190
 H      2.1336939699     -0.8521281285      2.1852634222
 H     -1.3744855437      7.2314554789      3.2543094663
 H     -1.1895759643      1.9293958343      2.5176651400
 H      6.9526815063      2.0366673090      3.4528151475
60
# ORCA AIMD Position Step 178, t=89.00 fs, E_Pot=-1525.79149217 Hartree, Unit is Angstrom
 H      3.2629234198      1.2140387691      0.4371543940
 H     -0.7887867895      6.9688257919      1.2038145909
 H     -0.5450572135      2.8348490507     -0.3617094361
 H      5.5223459328      1.6896008685      1.3876068702
 H      2.0513316985      3.8370850644      0.5785088609
 H      4.7904188508     -0.6242314009      4.8569445199
 H      1.9382220638      6.2821314237      4.8189900836
 H     -2.0820356439      4.2986498431      4.8956817810
 H      3.8391833948      3.8243700823      4.7795172416
 H      1.5139485087      1.7045900318      4.7420102183
 H      4.2648894501      0.6743867679     -0.3367635728
 H     -1.8097280336      6.4690752462      0.2032858088
 H      0.2978637714      1.7680752119      0.2217282337
 H      6.0243018322      2.4150040930      0.0824955660
 H      2.6253768268      2.9317590204     -0.4478254917
 H      3.9407152776     -0.5210367778      3.5502818310
 H      0.8433647969      6.5486488546      3.7849082362
 H     -1.6491802234      3.3628864341      3.6501301126
 H      5.1111431319      3.0237725110      4.1560893526
 H      1.7726930971      2.4301382277      3.2673415629
 H     -0.4699604115      6.1544202669      6.5484067695
 H     -2.9820210176      4.7209966355      7.2829271009
 H      1.1857539835      1.2712812691      7.0608276606
 H      5.0792355871      0.5699150608      7.1317163210
 H      2.5703827226      1.7911264840      6.5768395673
 H      5.1527113757      5.5510424503      7.2121109442
 H      2.0371814926      0.0648765130      3.3513503479
 H      5.6851767286      0.9150735925      3.6260165796
 H      3.1823677450      3.9645183636      2.6475129725
 H     -1.2623051825      5.6578648265      3.5413749716
 H      1.9456188906      4.8127976904      3.1616542915
 H     -0.3776624224      1.7399612062      3.8916838928
 O      3.2950559787      0.5921386119     -0.2556142464
 O     -1.1789601202      7.2232048299      0.3651111546
 O     -0.6272978606      2.1165020751      0.2932864024
 O      5.4684813953      1.6858322896      0.4125077643
 O      1.8838949900      3.5809985700     -0.3312978713
 O      4.9137861394     -0.4554866632      3.9136183979
 O      1.8287520808      6.2885928942      3.8658972633
 O     -2.1061859909      4.2520751118      3.9354466190
 O      4.5894517121      3.9528348702      4.1783460055
 O      1.4068476175      1.5982527935      3.7616665602
 O      4.4302302267     -0.0547625357      6.8167528642
 O      0.4311496896      6.4396383302      6.7369047246
 O     -2.1557552054      4.3716907601      6.8916784861
 O      4.8888186837      4.6030651330      7.1150983960
 O      1.6149263066      1.9179012868      6.4726351958
 O      2.3982890702     -0.8260307997      3.1570464382
 O     -0.7375756691      6.5235245709      3.5121790916
 O     -1.2851147018      1.8410725971      3.5205096287
 O      5.9622733042      1.9081974476      3.5720541163
 O      2.1428601376      3.9634083376      2.6421626055
 H      4.4331182871     -0.7111723899      7.5095995799
 H      0.6677960285      6.0467717013      7.5907882396
 H     -2.3785680507      3.4446478899      6.6673466016
 H      4.8758013741      4.6048989818      6.1516633924
 H      2.1378316236     -0.8500726723      2.1861763850
 H     -1.3847332944      7.2339465397      3.2471899589
 H     -1.1747854036      1.9309009987      2.5151725938
 H      6.9566690236      2.0234782345      3.4578173017
60
# ORCA AIMD Position Step 179, t=89.50 fs, E_Pot=-1525.79288629 Hartree, Unit is Angstrom
 H      3.2640605360      1.2302819933      0.4414685058
 H     -0.7925632043      6.9762640525      1.1799155249
 H     -0.5301327310      2.8356007210     -0.3853875182
 H      5.5244858693      1.6923437436      1.3752255984
 H      2.0582077127      3.8500781755      0.5739086269
 H      4.7951713522     -0.6279119777      4.8581631435
 H      1.9410079512      6.2868627998      4.8251357217
 H     -2.0934969452      4.3058690172      4.9030064092
 H      3.8269136226      3.8191011772      4.7827051705
 H      1.5177874408      1.7054499663      4.7343953556
 H      4.2722739816      0.6935635430     -0.3396758633
 H     -1.8063441373      6.4759987190      0.2140225883
 H      0.3013156151      1.7706993989      0.2268190062
 H      6.0388274707      2.4138401930      0.0948388838
 H      2.6277497279      2.9284909138     -0.4545892578
 H      3.9377234603     -0.5329905784      3.5501023688
 H      0.8581988421      6.5578551612      3.7909362834
 H     -1.6476926041      3.3630551345      3.6709822200
 H      5.1143673246      3.0251196208      4.1485961114
 H      1.7649362084      2.4226400236      3.2728600370
 H     -0.4830247966      6.1504202568      6.5344496197
 H     -2.9826114882      4.7186069831      7.2798822246
 H      1.1921531828      1.2583553032      7.0603303059
 H      5.0899078031      0.5810534664      7.1359434264
 H      2.5853890827      1.7927371169      6.5774813790
 H      5.1480979202      5.5547860819      7.2240976881
 H      2.0376897946      0.0597350760      3.3528844254
 H      5.6795592831      0.9100701994      3.6338096750
 H      3.1847548049      3.9634583613      2.6459000328
 H     -1.2480141649      5.6589390202      3.5372034406
 H      1.9378493569      4.8076297613      3.1603490904
 H     -0.3797029543      1.7299725253      3.8902150512
 O      3.2987466170      0.5962369991     -0.2571966166
 O     -1.1780296556      7.2255618770      0.3662835200
 O     -0.6231322940      2.1171848167      0.2941863502
 O      5.4612094080      1.6831748217      0.4137605312
 O      1.8791609961      3.5720514339     -0.3328229468
 O      4.9136535964     -0.4561432274      3.9154663621
 O      1.8298378665      6.2872344921      3.8674012345
 O     -2.1034033371      4.2540730528      3.9359205578
 O      4.5865127533      3.9513050188      4.1814205269
 O      1.4077835486      1.5981768215      3.7629053318
 O      4.4254162451     -0.0550022323      6.8153220453
 O      0.4286636206      6.4374627753      6.7358403757
 O     -2.1530002988      4.3725952083      6.8925349589
 O      4.8888440541      4.6040623065      7.1163684988
 O      1.6169444936      1.9160836930      6.4703144650
 O      2.3984917047     -0.8319683957      3.1539803834
 O     -0.7377880335      6.5224440297      3.5126922916
 O     -1.2864464776      1.8377370284      3.5201873639
 O      5.9606080893      1.9034365473      3.5721744965
 O      2.1422235278      3.9611938036      2.6368273823
 H      4.4227357443     -0.7078687929      7.5213231180
 H      0.6520513917      6.0361890410      7.5988759255
 H     -2.3715124885      3.4276643298      6.6724165762
 H      4.8725000295      4.6123035325      6.1452277564
 H      2.1435536279     -0.8488397465      2.1893495054
 H     -1.3934433961      7.2345660022      3.2408395270
 H     -1.1594139712      1.9315252414      2.5154725256
 H      6.9570820296      2.0092604909      3.4634550386
60
# ORCA AIMD Position Step 180, t=90.00 fs, E_Pot=-1525.79180746 Hartree, Unit is Angstrom
 H      3.2635113236      1.2490832844      0.4492576423
 H     -0.7934854194      6.9819536610      1.1612990213
 H     -0.5155028497      2.8355785450     -0.4073614326
 H      5.5272878393      1.6955349688      1.3653535836
 H      2.0643819858      3.8641551005      0.5720031869
 H      4.7998211036     -0.6314463667      4.8613605400
 H      1.9437784619      6.2914299835      4.8331916270
 H     -2.1047142117      4.3130319610      4.9113804162
 H      3.8146023335      3.8133865989      4.7854296597
 H      1.5220247762      1.7070997299      4.7276545060
 H      4.2800070121      0.7118755588     -0.3436005254
 H     -1.8019098458      6.4841775851      0.2248052982
 H      0.3037646178      1.7738702873      0.2322276491
 H      6.0525580472      2.4118017252      0.1078451349
 H      2.6286270457      2.9259139625     -0.4620915092
 H      3.9370810695     -0.5453259043      3.5502451677
 H      0.8738899294      6.5665006884      3.7964133342
 H     -1.6475882755      3.3644533816      3.6935103986
 H      5.1154872985      3.0302353613      4.1408658498
 H      1.7562236415      2.4152797157      3.2798523721
 H     -0.4957518015      6.1458296927      6.5208493853
 H     -2.9830845260      4.7159538302      7.2764311875
 H      1.1993690622      1.2456895600      7.0593608567
 H      5.1008826052      0.5925535419      7.1398711339
 H      2.5997836924      1.7936169534      6.5787522537
 H      5.1430142360      5.5570038030      7.2369481910
 H      2.0370742339      0.0567304692      3.3560012323
 H      5.6738503124      0.9050213897      3.6423961272
 H      3.1822938856      3.9628059877      2.6453231457
 H     -1.2346037202      5.6588619646      3.5334664211
 H      1.9301952146      4.8031559221      3.1590965746
 H     -0.3805260051      1.7198420696      3.8870881937
 O      3.3023838940      0.6001765616     -0.2589215531
 O     -1.1773403791      7.2279235698      0.3671515521
 O     -0.6188912991      2.1178845771      0.2950141278
 O      5.4540663200      1.6806163970      0.4148805726
 O      1.8745552922      3.5629834540     -0.3344517816
 O      4.9134176261     -0.4567612124      3.9171367455
 O      1.8308648007      6.2858900206      3.8688270140
 O     -2.1005783202      4.2560851078      3.9362312701
 O      4.5836640336      3.9496269584      4.1845263038
 O      1.4087470814      1.5980899522      3.7640196768
 O      4.4206044166     -0.0551547224      6.8138246282
 O      0.4262313640      6.4353234830      6.7347692127
 O     -2.1502708495      4.3733950665      6.8933682299
 O      4.8888976478      4.6052056105      7.1176726823
 O      1.6189741223      1.9142874267      6.4680015565
 O      2.3986789288     -0.8379287876      3.1507288099
 O     -0.7381326449      6.5215842094      3.5131086393
 O     -1.2878446680      1.8344502020      3.5196632391
 O      5.9591635487      1.8986580915      3.5721896718
 O      2.1419343461      3.9588961182      2.6314514585
 H      4.4121132688     -0.7059997351      7.5341363869
 H      0.6356499454      6.0254665825      7.6063227327
 H     -2.3641434033      3.4125917896      6.6781949815
 H      4.8694803086      4.6185408819      6.1368044476
 H      2.1506702145     -0.8484890567      2.1940457233
 H     -1.4001031293      7.2326675055      3.2354738308
 H     -1.1437090414      1.9313267331      2.5186553281
 H      6.9538869557      1.9940804973      3.4697216425
60
# ORCA AIMD Position Step 181, t=90.50 fs, E_Pot=-1525.78966775 Hartree, Unit is Angstrom
 H      3.2614110703      1.2688736414      0.4587876928
 H     -0.7901551605      6.9852316180      1.1505392063
 H     -0.5013721601      2.8337401678     -0.4265304138
 H      5.5306827994      1.6989453161      1.3594163050
 H      2.0697343553      3.8789084769      0.5717997407
 H      4.8043513065     -0.6348192787      4.8663489921
 H      1.9464730728      6.2957982479      4.8423467199
 H     -2.1157269754      4.3201611318      4.9198761451
 H      3.8029760744      3.8072544898      4.7871725505
 H      1.5267063246      1.7095668153      4.7225685170
 H      4.2874584641      0.7292483099     -0.3484226436
 H     -1.7970443849      6.4929940850      0.2353517387
 H      0.3055354581      1.7774346888      0.2379707659
 H      6.0649054020      2.4082069769      0.1215070856
 H      2.6279527120      2.9240706367     -0.4702069145
 H      3.9388493993     -0.5579510700      3.5507716146
 H      0.8894835248      6.5748059099      3.8011993998
 H     -1.6487150433      3.3667963942      3.7173558225
 H      5.1145166734      3.0388393699      4.1330433257
 H      1.7469151633      2.4087118261      3.2877720897
 H     -0.5068531323      6.1410570376      6.5078917428
 H     -2.9834931788      4.7130176745      7.2726009994
 H      1.2076575425      1.2337057627      7.0575456056
 H      5.1106734318      0.6029505756      7.1428438427
 H      2.6123240120      1.7939101048      6.5804950756
 H      5.1374364882      5.5575716306      7.2505103890
 H      2.0355338151      0.0554214295      3.3605800289
 H      5.6680125601      0.9000290742      3.6516967655
 H      3.1751249295      3.9625699706      2.6457719363
 H     -1.2224471649      5.6571784301      3.5301592762
 H      1.9227732643      4.7991958028      3.1577527863
 H     -0.3802542184      1.7095741998      3.8824897805
 O      3.3059910453      0.6040568359     -0.2606898626
 O     -1.1769413547      7.2303715845      0.3675709308
 O     -0.6145808654      2.1186760401      0.2956996457
 O      5.4471009917      1.6782182268      0.4157810882
 O      1.8700878101      3.5538148227     -0.3361306508
 O      4.9130732036     -0.4573481800      3.9186401396
 O      1.8318956944      6.2845464868      3.8702351479
 O     -2.0977184460      4.2581227167      3.9364549854
 O      4.5808596307      3.9478132510      4.1876892886
 O      1.4097146733      1.5979426278      3.7649922076
 O      4.4158842999     -0.0551771881      6.8123506430
 O      0.4237819951      6.4331723336      6.7337196505
 O     -2.1475779196      4.3740158687      6.8941602640
 O      4.8889772332      4.6064955292      7.1189494885
 O      1.6210782830      1.9124764767      6.4657297852
 O      2.3988563164     -0.8438828569      3.1473587391
 O     -0.7386011253      6.5210022701      3.5134210646
 O     -1.2892883048      1.8312065606      3.5189433523
 O      5.9579205164      1.8938541728      3.5721049476
 O      2.1419761061      3.9565301552      2.6260437642
 H      4.4013012092     -0.7047650710      7.5472630012
 H      0.6184272397      6.0149559602      7.6123743399
 H     -2.3562287732      3.4006392405      6.6849384010
 H      4.8667991861      4.6237172139      6.1275145199
 H      2.1589267167     -0.8490505518      2.1993080633
 H     -1.4044353403      7.2278790694      3.2312162998
 H     -1.1279202676      1.9303942487      2.5245671678
 H      6.9474033441      1.9780398897      3.4765698295
60
# ORCA AIMD Position Step 182, t=91.00 fs, E_Pot=-1525.78832266 Hartree, Unit is Angstrom
 H      3.2579495339      1.2880895154      0.4683476287
 H     -0.7817800041      6.9857918991      1.1489156452
 H     -0.4879255846      2.8293791946     -0.4420705001
 H      5.5345754166      1.7023527029      1.3583291368
 H      2.0741025742      3.8938180818      0.5721524395
 H      4.8087626342     -0.6379752425      4.8727183763
 H      1.9490099274      6.2999243101      4.8517050163
 H     -2.1265530972      4.3272822395      4.9275858599
 H      3.7926487348      3.8007236333      4.7875166649
 H      1.5318512661      1.7128459606      4.7197444126
 H      4.2940191368      0.7456214933     -0.3539960206
 H     -1.7924671475      6.5016916656      0.2453993594
 H      0.3070334218      1.7812074517      0.2440627165
 H      6.0754215927      2.4025882084      0.1357127107
 H      2.6258038385      2.9229071909     -0.4788192323
 H      3.9429516175     -0.5707780719      3.5516983810
 H      0.9039617618      6.5830401378      3.8051650614
 H     -1.6508597628      3.3696981124      3.7421239452
 H      5.1115794833      3.0504637370      4.1252622691
 H      1.7373927844      2.4036577261      3.2960077191
 H     -0.5152998791      6.1364415431      6.4958106010
 H     -2.9838997901      4.7098008881      7.2684295824
 H      1.2171714554      1.2227266545      7.0546053415
 H      5.1181088903      0.6110969836      7.1443651672
 H      2.6220489331      1.7937371527      6.5825637610
 H      5.1313816736      5.5565210809      7.2646338638
 H      2.0333422404      0.0551779804      3.3664107516
 H      5.6620150922      0.8952220302      3.6616169849
 H      3.1637511933      3.9627411559      2.6472054279
 H     -1.2118095150      5.6535691322      3.5272735108
 H      1.9156839657      4.7955464159      3.1561582186
 H     -0.3790736467      1.6991757455      3.8766157608
 O      3.3095861956      0.6079759872     -0.2624058609
 O     -1.1768371749      7.2329737143      0.3674777946
 O     -0.6102132374      2.1196148755      0.2961900361
 O      5.4403555374      1.6760278257      0.4164144193
 O      1.8657629352      3.5445787878     -0.3377954245
 O      4.9126228158     -0.4579141352      3.9200047475
 O      1.8329986217      6.2831880408      3.8716907591
 O     -2.0948357384      4.2602042376      3.9366687277
 O      4.5780534857      3.9458891931      4.1909308221
 O      1.4106625424      1.5976830626      3.7658207976
 O      4.4113247174     -0.0550468289      6.8109826655
 O      0.4212558224      6.4309690539      6.7327137281
 O     -2.1449265838      4.3744057354      6.8948988934
 O      4.8890773361      4.6079224775      7.1201360230
 O      1.6233090227      1.9106226333      6.4635257042
 O      2.3990274342     -0.8497921401      3.1439514929
 O     -0.7391766847      6.5207281144      3.5136287617
 O     -1.2907532600      1.8279984442      3.5180487408
 O      5.9568383030      1.8890136784      3.5719276089
 O      2.1423102023      3.9541139775      2.6206157319
 H      4.3903642933     -0.7033649494      7.5598849304
 H      0.6003003400      6.0049535080      7.6164303111
 H     -2.3476230924      3.3926339946      6.6927984513
 H      4.8645242935      4.6279435700      6.1184997519
 H      2.1680252981     -0.8505184010      2.2040327760
 H     -1.4064076200      7.2201139884      3.2280903205
 H     -1.1122877871      1.9288449619      2.5328168104
 H      6.9382933776      1.9612655771      3.4839180018
60
# ORCA AIMD Position Step 183, t=91.50 fs, E_Pot=-1525.78862170 Hartree, Unit is Angstrom
 H      3.2533430309      1.3053771761      0.4764681420
 H     -0.7684727535      6.9838366669      1.1559221516
 H     -0.4753209845      2.8221138996     -0.4534569919
 H      5.5388151342      1.7055368352      1.3623006155
 H      2.0773188085      3.9083134871      0.5719359072
 H      4.8130638577     -0.6408306002      4.8799006605
 H      1.9513017532      6.3037588384      4.8604056438
 H     -2.1371940797      4.3344305670      4.9337256705
 H      3.7840762274      3.7937960808      4.7861762294
 H      1.5374402070      1.7168909371      4.7195212311
 H      4.2991639388      0.7609476280     -0.3601642766
 H     -1.7889108368      6.5094644378      0.2547412654
 H      0.3086991254      1.7849861446      0.2505233292
 H      6.0838324751      2.3947079292      0.1502561588
 H      2.6223869815      2.9222810335     -0.4878294434
 H      3.9491773636     -0.5837287632      3.5529970947
 H      0.9163586510      6.5914863435      3.8081999091
 H     -1.6537624419      3.3726921452      3.7674051804
 H      5.1069195677      3.0644531298      4.1176340673
 H      1.7280244690      2.4008347382      3.3039379175
 H     -0.5203779036      6.1322395361      6.4847626478
 H     -2.9843665910      4.7063248247      7.2639607733
 H      1.2279502582      1.2129525004      7.0503709004
 H      5.1223648287      0.6161926439      7.1441036584
 H      2.6283240244      1.7931986698      6.5848289304
 H      5.1249039985      5.5540359183      7.2791816940
 H      2.0308110837      0.0552720939      3.3732113882
 H      5.6558314530      0.8907446677      3.6720483438
 H      3.1490588682      3.9632957568      2.6495637789
 H     -1.2028151710      5.6479123105      3.5248014086
 H      1.9090058253      4.7920047483      3.1541542662
 H     -0.3772130295      1.6886548066      3.8696756399
 O      3.3131804434      0.6120181474     -0.2639897638
 O     -1.1769745540      7.2357686858      0.3669174567
 O     -0.6058046287      2.1207375539      0.2964506026
 O      5.4338647096      1.6740782106      0.4167837755
 O      1.8615775628      3.5353172461     -0.3393820610
 O      4.9120767512     -0.4584704000      3.9212722762
 O      1.8342386705      6.2817979495      3.8732553526
 O     -2.0919454730      4.2623530154      3.9369425816
 O      4.5752016672      3.9438933727      4.1942661370
 O      1.4115695683      1.5972624587      3.7665210065
 O      4.4069723571     -0.0547567457      6.8097890264
 O      0.4186076875      6.4286834484      6.7317660608
 O     -2.1423170389      4.3745362566      6.8955776723
 O      4.8891899327      4.6094670723      7.1211755264
 O      1.6257051509      1.9087067930      6.4614078434
 O      2.3991939502     -0.8556147010      3.1405940507
 O     -0.7398359644      6.5207607137      3.5137372314
 O     -1.2922142848      1.8248164568      3.5170137168
 O      5.9558563808      1.8841236335      3.5716662201
 O      2.1428750495      3.9516670278      2.6151797907
 H      4.3793721716     -0.7010963422      7.5712452127
 H      0.5812691599      5.9956788968      7.6180868802
 H     -2.3382589059      3.3890111380      6.7018292351
 H      4.8627257550      4.6313354689      6.1107912175
 H      2.1776598967     -0.8528478048      2.2070897072
 H     -1.4062350497      7.2095680635      3.2260148375
 H     -1.0970279431      1.9268230624      2.5427933130
 H      6.9275366958      1.9438966596      3.4916604158
60
# ORCA AIMD Position Step 184, t=92.00 fs, E_Pot=-1525.79016669 Hartree, Unit is Angstrom
 H      3.2478125038      1.3196898236      0.4820202253
 H     -0.7512119270      6.9800177393      1.1694823978
 H     -0.4636841166      2.8118635503     -0.4604670736
 H      5.5431771640      1.7082744987      1.3708029039
 H      2.0792405630      3.9218323983      0.5701696491
 H      4.8172618074     -0.6432893920      4.8872523512
 H      1.9532691035      6.3072503678      4.8677150510
 H     -2.1476423628      4.3416558444      4.9377022503
 H      3.7775269312      3.7864528273      4.7830135048
 H      1.5434068886      1.7216098740      4.7219135917
 H      4.3025031544      0.7751938188     -0.3667767677
 H     -1.7870135743      6.5155751498      0.2632546673
 H      0.3109553250      1.7885695476      0.2573837232
 H      6.0900514765      2.3845535927      0.1648565467
 H      2.6180213649      2.9219773814     -0.4971605877
 H      3.9571894821     -0.5967401340      3.5545944917
 H      0.9259007782      6.6003892451      3.8102210123
 H     -1.6571379290      3.3752684909      3.7927947534
 H      5.1009136778      3.0799592374      4.1102344892
 H      1.7191199468      2.4008554064      3.3110033341
 H     -0.5217035928      6.1286210857      6.4748129369
 H     -2.9849452872      4.7026257576      7.2592394509
 H      1.2399177708      1.2044477361      7.0447898325
 H      5.1229512914      0.6177705916      7.1418796887
 H      2.6308549706      1.7923796551      6.5871813165
 H      5.1180881765      5.5504343987      7.2940387806
 H      2.0282533488      0.0549695075      3.3806500486
 H      5.6494382398      0.8867451113      3.6828701367
 H      3.1323269259      3.9642000972      2.6527836659
 H     -1.1954402162      5.6403124324      3.5227407623
 H      1.9027912899      4.7883858527      3.1515967240
 H     -0.3749197857      1.6780197603      3.8618959310
 O      3.3167763539      0.6162472614     -0.2653828325
 O     -1.1772516414      7.2387624157      0.3660290207
 O     -0.6013723210      2.1220616783      0.2964646723
 O      5.4276559025      1.6723884033      0.4169438702
 O      1.8575203145      3.5260761160     -0.3408341932
 O      4.9114532876     -0.4590283028      3.9224926328
 O      1.8356682853      6.2803616184      3.8749804041
 O     -2.0890643302      4.2645945565      3.9373343032
 O      4.5722635562      3.9418782626      4.1977036947
 O      1.4124205132      1.5966418305      3.7671249855
 O      4.4028531570     -0.0543112701      6.8088201425
 O      0.4158082597      6.4262963812      6.7308835197
 O     -2.1397458565      4.3744025455      6.8961955606
 O      4.8893052755      4.6111012543      7.1220220596
 O      1.6282914992      1.9067195794      6.4593861957
 O      2.3993552343     -0.8613107178      3.1373676414
 O     -0.7405494576      6.5210667296      3.5137583122
 O     -1.2936470114      1.8216499876      3.5158832965
 O      5.9548982711      1.8791709250      3.5713298419
 O      2.1435857251      3.9492084051      2.6097478616
 H      4.3683913297     -0.6974135136      7.5807200229
 H      0.5614104387      5.9872631366      7.6171572513
 H     -2.3281373084      3.3898174912      6.7119973002
 H      4.8614690246      4.6340133157      6.1052278491
 H      2.1875583169     -0.8559565899      2.2074828413
 H     -1.4043812511      7.1967130806      3.2248004020
 H     -1.0823225838      1.9244961718      2.5536994334
 H      6.9163688632      1.9260694121      3.4996800580
60
# ORCA AIMD Position Step 185, t=92.50 fs, E_Pot=-1525.79209740 Hartree, Unit is Angstrom
 H      3.2415676049      1.3303096901      0.4842334739
 H     -0.7315031469      6.9752149379      1.1866985662
 H     -0.4531024145      2.7988287519     -0.4631829556
 H      5.5473661721      1.7103421476      1.3827258866
 H      2.0797727370      3.9338679746      0.5660895490
 H      4.8213535893     -0.6452598248      4.8941365321
 H      1.9548501715      6.3103498573      4.8730874410
 H     -2.1578898458      4.3490252859      4.9391481064
 H      3.7730643485      3.7786511022      4.7780445113
 H      1.5496370577      1.7268665741      4.7266136991
 H      4.3038146227      0.7883450190     -0.3737005869
 H     -1.7872044578      6.5194899141      0.2709146557
 H      0.3141504430      1.7917784628      0.2646897648
 H      6.0941834448      2.3723219123      0.1791792854
 H      2.6131103589      2.9217335141     -0.5067592952
 H      3.9665351337     -0.6097695576      3.5563740074
 H      0.9321408839      6.6098980171      3.8111801917
 H     -1.6607050185      3.3769271647      3.8179110747
 H      5.0940773480      3.0959487937      4.1030902315
 H      1.7108877193      2.4041137609      3.3167816802
 H     -0.5192232123      6.1256699091      6.4659252057
 H     -2.9856690309      4.6987507073      7.2543074340
 H      1.2528869548      1.1971361532      7.0379251779
 H      5.1196914193      0.6156736227      7.1376504091
 H      2.6296869820      1.7913533622      6.5895349583
 H      5.1110396205      5.5461379399      7.3091160550
 H      2.0259539588      0.0536047431      3.3883689514
 H      5.6428132342      0.8833618488      3.6939519631
 H      3.1151992764      3.9654168460      2.6568169159
 H     -1.1895284460      5.6310896642      3.5210979547
 H      1.8970642521      4.7845384458      3.1483674409
 H     -0.3724361657      1.6672778164      3.8535215973
 O      3.3203671919      0.6207055477     -0.2665477023
 O     -1.1775465951      7.2419334944      0.3649973426
 O     -0.5969316170      2.1235858911      0.2962336478
 O      5.4217484388      1.6709641429      0.4169897960
 O      1.8535720272      3.5169009429     -0.3421076014
 O      4.9107784611     -0.4595978246      3.9237185194
 O      1.8373182724      6.2788699519      3.8769030358
 O     -2.0862080755      4.2669527684      3.9378859736
 O      4.5692027348      3.9399098056      4.2012452164
 O      1.4132087859      1.5957992430      3.7676764715
 O      4.3989741297     -0.0537226243      6.8081067204
 O      0.4128446099      6.4238002315      6.7300654218
 O     -2.1372069769      4.3740234894      6.8967565927
 O      4.8894128349      4.6127902392      7.1226431247
 O      1.6310786033      1.9046614506      6.4574622068
 O      2.3995075966     -0.8668467351      3.1343352190
 O     -0.7412809899      6.5215824749      3.5137100295
 O     -1.2950296127      1.8184878453      3.5147093377
 O      5.9538789509      1.8741442238      3.5709270298
 O      2.1443358797      3.9467552182      2.6043297713
 H      4.3574779493     -0.6919579689      7.5878629566
 H      0.5408670372      5.9797416930      7.6136789251
 H     -2.3173201995      3.3947126161      6.7231912275
 H      4.8608091486      4.6361031625      6.1024116495
 H      2.1975235443     -0.8597312859      2.2045270335
 H     -1.4015501412      7.1822771295      3.2241494873
 H     -1.0683138598      1.9220495352      2.5646083158
 H      6.9061638968      1.9079009630      3.5078650001
60
# ORCA AIMD Position Step 186, t=93.00 fs, E_Pot=-1525.79374475 Hartree, Unit is Angstrom
 H      3.2347951570      1.3368370286      0.4826802881
 H     -0.7109740851      6.9703025804      1.2046368908
 H     -0.4436156765      2.7834812518     -0.4620028989
 H      5.5510422387      1.7115267708      1.3966389110
 H      2.0788806449      3.9440035443      0.5591800318
 H      4.8253220647     -0.6466684674      4.8999923158
 H      1.9560071578      6.3130150149      4.8761987100
 H     -2.1679359807      4.3566246712      4.9379345637
 H      3.7705383627      3.7703222216      4.7714377259
 H      1.5559753913      1.7324882478      4.7330495366
 H      4.3030607079      0.8004081908     -0.3808287805
 H     -1.7896156192      6.5209905327      0.2777884563
 H      0.3185076433      1.7944757458      0.2725019105
 H      6.0965203920      2.3583960330      0.1928574463
 H      2.6081007364      2.9212705746     -0.5165931159
 H      3.9766648919     -0.6227987260      3.5581804523
 H      0.9350417238      6.6200202702      3.8110685567
 H     -1.6642190222      3.3772427855      3.8424092483
 H      5.0870505157      3.1112439008      4.0961690026
 H      1.7034068847      2.4106914121      3.3210446674
 H     -0.5132077982      6.1233830837      6.4579537373
 H     -2.9865475293      4.6947535088      7.2492005895
 H      1.2665706491      1.1908045213      7.0299470568
 H      5.1127112037      0.6100405845      7.1315005860
 H      2.6251999524      1.7901834420      6.5918310391
 H      5.1038718800      5.5416257127      7.3243494675
 H      2.0241490939      0.0506341868      3.3960079337
 H      5.6359336831      0.8807106190      3.7051572463
 H      3.0995740514      3.9669116349      2.6616477017
 H     -1.1848266849      5.6207325347      3.5198889321
 H      1.8918198693      4.7803564703      3.1443829347
 H     -0.3699791579      1.6564338397      3.8448137363
 O      3.3239367711      0.6254139962     -0.2674668002
 O     -1.1777486688      7.2452408482      0.3640038835
 O     -0.5924932981      2.1252892173      0.2957777952
 O      5.4161520289      1.6697985324      0.4170390711
 O      1.8497075294      3.5078328074     -0.3431724677
 O      4.9100851193     -0.4601864701      3.9250006014
 O      1.8391921392      6.2773220731      3.8790435728
 O     -2.0833890964      4.2694456698      3.9386223470
 O      4.5659886086      3.9380648855      4.2048860033
 O      1.4139378520      1.5947353576      3.7682233616
 O      4.3953244293     -0.0530094084      6.8076588382
 O      0.4097206869      6.4211990858      6.7293042352
 O     -2.1346923949      4.3734422366      6.8972694843
 O      4.8895023201      4.6144953740      7.1230211474
 O      1.6340622678      1.9025423571      6.4556291611
 O      2.3996438871     -0.8721983551      3.1315310530
 O     -0.7419874604      6.5222199269      3.5136159017
 O     -1.2963436921      1.8153190074      3.5135451869
 O      5.9527164114      1.8690357614      3.5704647387
 O      2.1450047152      3.9443211642      2.5989318735
 H      4.3466715305     -0.6845687511      7.5924294494
 H      0.5198345249      5.9730517374      7.6079109794
 H     -2.3059241182      3.4029658099      6.7352311246
 H      4.8607866166      4.6377370404      6.1026859029
 H      2.2074607863     -0.8640364349      2.1979918149
 H     -1.3986537537      7.1671976276      3.2236675058
 H     -1.0551081771      1.9196770381      2.5745483710
 H      6.8982504674      1.8894751926      3.5161261850
60
# ORCA AIMD Position Step 187, t=93.50 fs, E_Pot=-1525.79472499 Hartree, Unit is Angstrom
 H      3.2276492261      1.3391752490      0.4772570721
 H     -0.6910888657      6.9660071362      1.2208173356
 H     -0.4352033967      2.7665591902     -0.4576574998
 H      5.5538577598      1.7116404936      1.4110548502
 H      2.0765965244      3.9519383289      0.5491846818
 H      4.8291345187     -0.6474707679      4.9043865912
 H      1.9567296762      6.3152140099      4.8769618553
 H     -2.1777947801      4.3645576302      4.9341701839
 H      3.7695858200      3.7613694942      4.7635060680
 H      1.5622388955      1.7382781529      4.7404797613
 H      4.3003927195      0.8114164630     -0.3880855160
 H     -1.7940515748      6.5202244672      0.2840121422
 H      0.3240894629      1.7965821485      0.2808906724
 H      6.0975274088      2.3433144518      0.2055126521
 H      2.6034315303      2.9203311626     -0.5266432781
 H      3.9869637589     -0.6358346612      3.5598296103
 H      0.9349788541      6.6306036733      3.8099171972
 H     -1.6675017175      3.3759286311      3.8659877153
 H      5.0805483867      3.1246137114      4.0893792844
 H      1.6966249047      2.4203179436      3.3237775209
 H     -0.5042453709      6.1216700366      6.4506361740
 H     -2.9875660755      4.6906911362      7.2439473640
 H      1.2805989006      1.1851166372      7.0211159879
 H      5.1024460798      0.6013080191      7.1236409735
 H      2.6180990333      1.7889242870      6.5940424943
 H      5.0966922878      5.5373772330      7.3396930208
 H      2.0230133985      0.0456690859      3.4032261857
 H      5.6287750131      0.8788728555      3.7163475974
 H      3.0873724448      3.9686573601      2.6673002779
 H     -1.1810291780      5.6098283053      3.5191379933
 H      1.8870269114      4.7757865339      3.1395998764
 H     -0.3677264944      1.6454899650      3.8360428531
 O      3.3274599311      0.6303731221     -0.2681407689
 O     -1.1777781519      7.2486296008      0.3631972796
 O     -0.5880622266      2.1271303185      0.2951376451
 O      5.4108652171      1.6688729825      0.4172135188
 O      1.8458984232      3.4989044079     -0.3440145437
 O      4.9094110182     -0.4607985515      3.9263834709
 O      1.8412656946      6.2757263857      3.8814045528
 O     -2.0806142044      4.2720812853      3.9395505476
 O      4.5625995981      3.9364255509      4.2086151964
 O      1.4146206948      1.5934752041      3.7688103342
 O      4.3918753020     -0.0521967013      6.8074652747
 O      0.4064577852      6.4185086590      6.7285868904
 O     -2.1321926367      4.3727261769      6.8977469866
 O      4.8895647299      4.6161777734      7.1231546544
 O      1.6372230012      1.9003808252      6.4538730179
 O      2.3997541892     -0.8773516404      3.1289557828
 O     -0.7426207031      6.5228769095      3.5135031558
 O     -1.2975741525      1.8121334658      3.5124390505
 O      5.9513461997      1.8638424885      3.5699474184
 O      2.1454713943      3.9419155276      2.5935563507
 H      4.3359889410     -0.6752821301      7.5943895952
 H      0.4985455500      5.9670342074      7.6003203348
 H     -2.2941133321      3.4134607500      6.7478807432
 H      4.8614247095      4.6390526030      6.1061237323
 H      2.2173795206     -0.8687247007      2.1881603038
 H     -1.3967368504      7.1525305967      3.2228933924
 H     -1.0427913345      1.9175688392      2.5826135410
 H      6.8936804697      1.8708365842      3.5244119583
60
# ORCA AIMD Position Step 188, t=94.00 fs, E_Pot=-1525.79479183 Hartree, Unit is Angstrom
 H      3.2202394155      1.3375276210      0.4681778644
 H     -0.6730203407      6.9628613637      1.2333832386
 H     -0.4277708722      2.7490547707     -0.4512186165
 H      5.5554925387      1.7105337451      1.4246233927
 H      2.0730225239      3.9575097069      0.5361069839
 H      4.8327438324     -0.6476574426      4.9070477166
 H      1.9570356241      6.3169286327      4.8755297533
 H     -2.1875017553      4.3729438897      4.9281875596
 H      3.7696469107      3.7516659666      4.7546873689
 H      1.5682337804      1.7440307734      4.7480975801
 H      4.2961439832      0.8214329613     -0.3954291362
 H     -1.8000291283      6.5176725991      0.2897581543
 H      0.3307861834      1.7980858644      0.2899286146
 H      6.0978150821      2.3277271752      0.2167760135
 H      2.5994772407      2.9187197502     -0.5368942171
 H      3.9967978063     -0.6489071505      3.5611240542
 H      0.9326627933      6.6413518541      3.8077937057
 H     -1.6704620566      3.3728859061      3.8883895179
 H      5.0752693768      3.1349259755      4.0825853701
 H      1.6903816431      2.4324020842      3.3251558010
 H     -0.4932218225      6.1203530719      6.4435891190
 H     -2.9886883486      4.6866193110      7.2385675681
 H      1.2945448116      1.1796403802      7.0117553954
 H      5.0896601083      0.5902224105      7.1144105885
 H      2.6093913140      1.7876206901      6.5961788198
 H      5.0895868878      5.5338088142      7.3551072689
 H      2.0226522981      0.0384945835      3.4097223072
 H      5.6213099025      0.8778877414      3.7273884401
 H      3.0801968140      3.9706327803      2.6738289204
 H     -1.1778193479      5.5989901754      3.5188749019
 H      1.8826319532      4.7708313824      3.1340177610
 H     -0.3658084299      1.6344456751      3.8274777655
 O      3.3309037887      0.6355630083     -0.2685878082
 O     -1.1775919031      7.2520360443      0.3626846175
 O     -0.5836374663      2.1290476186      0.2943751598
 O      5.4058748415      1.6681590743      0.4176255406
 O      1.8421163686      3.4901361522     -0.3446359025
 O      4.9087958119     -0.4614349427      3.9279023674
 O      1.8434918810      6.2740995122      3.8839708285
 O     -2.0778830513      4.2748546383      3.9406608508
 O      4.5590279430      3.9350695267      4.2124159436
 O      1.4152774544      1.5920652621      3.7694736379
 O      4.3885792334     -0.0513172480      6.8074930146
 O      0.4030945712      6.4157556608      6.7278968945
 O     -2.1296973639      4.3719649619      6.8982047396
 O      4.8895933586      4.6178023551      7.1230595047
 O      1.6405257905      1.8982022202      6.4521738893
 O      2.3998277351     -0.8823037659      3.1265785305
 O     -0.7431330020      6.5234506555      3.5133994670
 O     -1.2987082431      1.8089230530      3.5114270791
 O      5.9497352937      1.8585661793      3.5693765981
 O      2.1456363300      3.9395428472      2.5882016978
 H      4.3254182227     -0.6643241682      7.5939340706
 H      0.4772505320      5.9614429943      7.5915521093
 H     -2.2820870062      3.4247316249      6.7608672745
 H      4.8627284962      4.6401922736      6.1125196481
 H      2.2273705655     -0.8736450504      2.1757775517
 H     -1.3968457702      7.1393094073      3.2213556815
 H     -1.0314518452      1.9158976588      2.5880828592
 H      6.8930085901      1.8519961477      3.5327140649
60
# ORCA AIMD Position Step 189, t=94.50 fs, E_Pot=-1525.79374494 Hartree, Unit is Angstrom
 H      3.2126196268      1.3324062814      0.4559821819
 H     -0.6576295795      6.9612219214      1.2410792106
 H     -0.4211409037      2.7321740473     -0.4440668294
 H      5.5556769286      1.7081008144      1.4362419865
 H      2.0683327471      3.9607113994      0.5202228697
 H      4.8360909820     -0.6472585437      4.9078864040
 H      1.9569694098      6.3181556663      4.8722873098
 H     -2.1971134016      4.3819133867      4.9205226175
 H      3.7700017920      3.7410578830      4.7455156837
 H      1.5737712396      1.7495450758      4.7551271761
 H      4.2908078302      0.8305503852     -0.4028497609
 H     -1.8068649099      6.5140549838      0.2952020887
 H      0.3383307123      1.7990407660      0.2996759683
 H      6.0980814889      2.3123341119      0.2263114495
 H      2.5964994536      2.9163312887     -0.5473176330
 H      4.0055707105     -0.6620558765      3.5618765330
 H      0.9290017884      6.6518687157      3.8047952978
 H     -1.6730991341      3.3682189609      3.9093921416
 H      5.0717739380      3.1413279617      4.0756445994
 H      1.6844571415      2.4461260705      3.3254845141
 H     -0.4812772088      6.1191750700      6.4363177125
 H     -2.9898649803      4.6825911101      7.2330772826
 H      1.3079568596      1.1738931965      7.0022160636
 H      5.0754597786      0.5778468995      7.1042796321
 H      2.6003299862      1.7863057534      6.5982864596
 H      5.0826109209      5.5312151118      7.3705393063
 H      2.0231001706      0.0290741219      3.4152485886
 H      5.6135076844      0.8777420285      3.7381519543
 H      3.0789514157      3.9728128321      2.6812808566
 H     -1.1749054206      5.5887944455      3.5191304156
 H      1.8785672395      4.7655474649      3.1276767202
 H     -0.3643135991      1.6233015520      3.8193733191
 O      3.3342298059      0.6409428377     -0.2688443139
 O     -1.1771790998      7.2553924906      0.3625348674
 O     -0.5792137703      2.1309618679      0.2935726461
 O      5.4011582501      1.6676220384      0.4183694552
 O      1.8383359945      3.4815332681     -0.3450566249
 O      4.9082772348     -0.4620935654      3.9295802224
 O      1.8458094004      6.2724636940      3.8867106244
 O     -2.0751881298      4.2777468236      3.9419287160
 O      4.5552851413      3.9340584897      4.2162648789
 O      1.4159318095      1.5905667515      3.7702387088
 O      4.3853691853     -0.0504123076      6.8076869572
 O      0.3996854224      6.4129760249      6.7272168587
 O     -2.1271959154      4.3712637717      6.8986592889
 O      4.8895844088      4.6193415972      7.1227704274
 O      1.6439214969      1.8960359861      6.4505082691
 O      2.3998558045     -0.8870628028      3.1243448200
 O     -0.7434866442      6.5238536523      3.5133278316
 O     -1.2997333105      1.8056823092      3.5105272983
 O      5.9478903175      1.8532126130      3.5687515757
 O      2.1454445944      3.9372034502      2.5828650985
 H      4.3149162130     -0.6521036691      7.5914758496
 H      0.4562008403      5.9559652081      7.5823790236
 H     -2.2700622620      3.4350718254      6.7739077429
 H      4.8646846110      4.6413012623      6.1213848487
 H      2.2375640387     -0.8786509943      2.1619124074
 H     -1.3998395492      7.1283588616      3.2186574859
 H     -1.0212131537      1.9148017760      2.5905287636
 H      6.8961609287      1.8329542351      3.5410581643
60
# ORCA AIMD Position Step 190, t=95.00 fs, E_Pot=-1525.79155137 Hartree, Unit is Angstrom
 H      3.2047692593      1.3246504314      0.4415506748
 H     -0.6454912554      6.9612979668      1.2431577254
 H     -0.4150594563      2.7172366338     -0.4377924532
 H      5.5542072123      1.7042839169      1.4450909076
 H      2.0627741378      3.9617146180      0.5020758267
 H      4.8391083327     -0.6463428883      4.9070021755
 H      1.9565977314      6.3189083745      4.8678300154
 H     -2.2067120799      4.3916019475      4.9118724637
 H      3.7698466250      3.7293700258      4.7365623061
 H      1.5786823698      1.7546377848      4.7608911658
 H      4.2850000906      0.8388907711     -0.4103665788
 H     -1.8137949640      6.5101992644      0.3004987247
 H      0.3463370302      1.7995612829      0.3101700111
 H      6.0990394476      2.2978056022      0.2338388272
 H      2.5946083665      2.9131759554     -0.5578623684
 H      4.0127925949     -0.6753183761      3.5619363938
 H      0.9249652841      6.6617142747      3.8010400767
 H     -1.6754929003      3.3622241175      3.9288059115
 H      5.0703636446      3.1434204733      4.0684505032
 H      1.6786146354      2.4605633119      3.3251321571
 H     -0.4697105840      6.1178206287      6.4282390520
 H     -2.9910417814      4.6786505064      7.2274874688
 H      1.3204025360      1.1674002613      6.9928265704
 H      5.0612725634      0.5655323849      7.0938314912
 H      2.5923097797      1.7850039303      6.6004454488
 H      5.0757800844      5.5297263929      7.3859095429
 H      2.0243171442      0.0175546857      3.4196269242
 H      5.6053343828      0.8783733014      3.7485236382
 H      3.0836103430      3.9751563025      2.6896551089
 H     -1.1720390632      5.5797388278      3.5199321410
 H      1.8747562526      4.7600403351      3.1206547634
 H     -0.3632902277      1.6120601062      3.8119555507
 O      3.3373972743      0.6464497827     -0.2689660054
 O     -1.1765520878      7.2586338196      0.3627861675
 O     -0.5747835505      2.1327827290      0.2928272998
 O      5.3966869745      1.6672255204      0.4195175731
 O      1.8345370708      3.4730828810     -0.3453151925
 O      4.9078866290     -0.4627701634      3.9314255031
 O      1.8481516092      6.2708432600      3.8895775310
 O     -2.0725152283      4.2807261552      3.9433176414
 O      4.5514046204      3.9334267934      4.2201331931
 O      1.4166075407      1.5890472492      3.7711201323
 O      4.3821601218     -0.0495314060      6.8079718308
 O      0.3962961388      6.4102114499      6.7265319367
 O     -2.1246789939      4.3707311504      6.8991255352
 O      4.8895373924      4.6207782586      7.1223415126
 O      1.6473506478      1.8939116619      6.4488523300
 O      2.3998342476     -0.8916478442      3.1221872774
 O     -0.7436643956      6.5240268615      3.5133016287
 O     -1.3006358109      1.8024087723      3.5097369460
 O      5.9458564894      1.8477898824      3.5680703014
 O      2.1449002753      3.9348945096      2.5775450556
 H      4.3044048000     -0.6391856473      7.5876374562
 H      0.4356232113      5.9502545798      7.5736224166
 H     -2.2582388175      3.4427329573      6.7867511059
 H      4.8672641209      4.6425262654      6.1319512062
 H      2.2480914231     -0.8836034774      2.1477727190
 H     -1.4062035234      7.1201280593      3.2145603425
 H     -1.0122494622      1.9143772082      2.5898729093
 H      6.9024519109      1.8137226376      3.5494883510
60
# ORCA AIMD Position Step 191, t=95.50 fs, E_Pot=-1525.78862520 Hartree, Unit is Angstrom
 H      3.1965781440      1.3154295990      0.4261057882
 H     -0.6369256023      6.9631809937      1.2392907422
 H     -0.4092270864      2.7055004944     -0.4339851673
 H      5.5509511513      1.6990709985      1.4506348151
 H      2.0566653873      3.9608809654      0.4824754093
 H      4.8417227755     -0.6450159188      4.9046803710
 H      1.9560021133      6.3192154387      4.8629226772
 H     -2.2164009998      4.4021418281      4.9030356195
 H      3.7684024474      3.7164247956      4.7283621447
 H      1.5828287289      1.7591523823      4.7648587206
 H      4.2794003242      0.8465994753     -0.4180169555
 H     -1.8200793040      6.5069209540      0.3057669961
 H      0.3543534331      1.7998083278      0.3214127213
 H      6.1013131746      2.2846913202      0.2391586409
 H      2.5937525081      2.9093791187     -0.5684453319
 H      4.0181399532     -0.6887100232      3.5612167878
 H      0.9214647785      6.6704583861      3.7966581757
 H     -1.6777807632      3.3553455086      3.9464684749
 H      5.0710128317      3.1413403123      4.0609751555
 H      1.6726397220      2.4747912306      3.3244681830
 H     -0.4598254483      6.1159576687      6.4187377200
 H     -2.9921707533      4.6748291878      7.2218079678
 H      1.3315130639      1.1597646279      6.9838433543
 H      5.0487424395      0.5548127125      7.0837160854
 H      2.5867000946      1.7837361382      6.6027541730
 H      5.0690716949      5.5292940255      7.4010982440
 H      2.0261899833      0.0042625144      3.4227583798
 H      5.5967527673      0.8796716501      3.7584050674
 H      3.0932291113      3.9775966096      2.6988681424
 H     -1.1690262465      5.5722179945      3.5213002484
 H      1.8711207449      4.7544551062      3.1130608340
 H     -0.3627576397      1.6007294696      3.8054098887
 O      3.3403677907      0.6519991755     -0.2690286991
 O     -1.1757377448      7.2617031677      0.3634522891
 O     -0.5703382267      2.1344206199      0.2922387920
 O      5.3924330453      1.6669374968      0.4211183893
 O      1.8307051591      3.4647532006     -0.3454689025
 O      4.9076449518     -0.4634596131      3.9334306259
 O      1.8504544618      6.2692614726      3.8925137895
 O     -2.0698453700      4.2837514130      3.9447834406
 O      4.5474391344      3.9331750359      4.2239887121
 O      1.4173256811      1.5875729349      3.7721226358
 O      4.3788552814     -0.0487281076      6.8082570902
 O      0.3929954990      6.4075037928      6.7258326901
 O     -2.1221403338      4.3704603435      6.8996138777
 O      4.8894548315      4.6221063591      7.1218452084
 O      1.6507510848      1.8918540539      6.4471859488
 O      2.3997654730     -0.8960885143      3.1200357525
 O     -0.7436770686      6.5239476550      3.5133208880
 O     -1.3014004458      1.7991030073      3.5090332784
 O      5.9437077924      1.8423069327      3.5673307800
 O      2.1440654141      3.9326112590      2.5722438221
 H      4.2937749557     -0.6262528223      7.5832190956
 H      0.4157008032      5.9439787648      7.5660500907
 H     -2.2467619172      3.4462239052      6.7992193256
 H      4.8704266721      4.6440133950      6.1431996383
 H      2.2590543160     -0.8883749477      2.1345357048
 H     -1.4159179841      7.1145909733      3.2090464497
 H     -1.0047908480      1.9146722661      2.5863843558
 H      6.9107393471      1.7943453484      3.5580460240
60
# ORCA AIMD Position Step 192, t=96.00 fs, E_Pot=-1525.78596768 Hartree, Unit is Angstrom
 H      3.1878402278      1.3061996016      0.4111621103
 H     -0.6320161743      6.9668607792      1.2295145377
 H     -0.4033571506      2.6979257976     -0.4339291491
 H      5.5458499794      1.6924918256      1.4526106347
 H      2.0503897826      3.9587611866      0.4624697791
 H      4.8438585386     -0.6434144324      4.9013756878
 H      1.9552681934      6.3191178656      4.8584311781
 H     -2.2262943744      4.4136493493      4.8948267345
 H      3.7650495253      3.7020733152      4.7213275983
 H      1.5861098623      1.7629659181      4.7666742603
 H      4.2746739961      0.8538360507     -0.4258394852
 H     -1.8250820241      6.5049314978      0.3110839093
 H      0.3619207628      1.7999722047      0.3333632743
 H      6.1053317454      2.2733355376      0.2421736820
 H      2.5937351956      2.9051631006     -0.5789502827
 H      4.0214962145     -0.7022058556      3.5597150245
 H      0.9192751371      6.6777224448      3.7917839872
 H     -1.6801301373      3.3481166361      3.9622452706
 H      5.0733817883      3.1357201232      4.0532887627
 H      1.6663631020      2.4879738792      3.3238201552
 H     -0.4527207615      6.1132988229      6.4072505429
 H     -2.9932192346      4.6711433128      7.2160503314
 H      1.3410246460      1.1507342248      6.9754067450
 H      5.0395048815      0.5471908400      7.0745590218
 H      2.5846308901      1.7825294912      6.6053035620
 H      5.0624319955      5.5297074705      7.4159417088
 H      2.0285349653     -0.0103063793      3.4246292992
 H      5.5877227281      0.8814870491      3.7677157760
 H      3.1062062274      3.9800426825      2.7087499398
 H     -1.1657292855      5.5665140931      3.5232441416
 H      1.8675859456      4.7489640828      3.1050259500
 H     -0.3627172416      1.5893261935      3.7998723542
 O      3.3431103066      0.6574878045     -0.2691263114
 O     -1.1747712809      7.2645567304      0.3645264559
 O     -0.5658681973      2.1358025975      0.2918905913
 O      5.3883758059      1.6667359398      0.4231958952
 O      1.8268309512      3.4564947312     -0.3455921861
 O      4.9075600616     -0.4641573161      3.9355717080
 O      1.8526621807      6.2677381824      3.8954551802
 O     -2.0671572955      4.2867762922      3.9462797684
 O      4.5434513882      3.9332705957      4.2278001840
 O      1.4181027775      1.5862028075      3.7732421854
 O      4.3753596079     -0.0480506165      6.8084466618
 O      0.3898431022      6.4048877408      6.7251168044
 O     -2.1195782075      4.3705088045      6.9001281263
 O      4.8893414530      4.6233301844      7.1213680843
 O      1.6540688317      1.8898783020      6.4454969767
 O      2.3996593334     -0.9004242240      3.1178250767
 O     -0.7435639629      6.5236291275      3.5133719495
 O     -1.3020106180      1.7957681667      3.5083779705
 O      5.9415324527      1.8367726229      3.5665321217
 O      2.1430433624      3.9303478968      2.5669680424
 H      4.2828978708     -0.6140400335      7.5791336942
 H      0.3965589884      5.9368743294      7.5602632992
 H     -2.2356897880      3.4446387919      6.8112374562
 H      4.8741267180      4.6459060384      6.1539300382
 H      2.2705080949     -0.8928521528      2.1232186434
 H     -1.4284497513      7.1112682107      3.2023260519
 H     -0.9991075519      1.9156896177      2.5806172162
 H      6.9196535532      1.7749059091      3.5667544674
60
# ORCA AIMD Position Step 193, t=96.50 fs, E_Pot=-1525.78480268 Hartree, Unit is Angstrom
 H      3.1782720766      1.2985666636      0.3983802002
 H     -0.6306048562      6.9722266483      1.2142169383
 H     -0.3972446078      2.6949473420     -0.4382864765
 H      5.5389193046      1.6846127392      1.4510200256
 H      2.0443765248      3.9560639938      0.4432747635
 H      4.8454396896     -0.6416980458      4.8976784538
 H      1.9544721216      6.3186632977      4.8552231760
 H     -2.2365000231      4.4262082138      4.8879700462
 H      3.7594560622      3.6862359967      4.7156726673
 H      1.5884679812      1.7659937108      4.7661729403
 H      4.2713829573      0.8607622638     -0.4338512945
 H     -1.8283226877      6.5047796439      0.3164839829
 H      0.3686273305      1.8002535878      0.3459362364
 H      6.1112460189      2.2638232002      0.2429036500
 H      2.5942547852      2.9008129284     -0.5892345207
 H      4.0229604677     -0.7157279926      3.5575206748
 H      0.9189931838      6.6832069327      3.7865499656
 H     -1.6827131799      3.3411012951      3.9760335815
 H      5.0769048078      3.1275419989      4.0455506429
 H      1.6596687543      2.4994078266      3.3234514427
 H     -0.4490726568      6.1096705125      6.3933690644
 H     -2.9941756082      4.6675918434      7.2102302833
 H      1.3488066622      1.1402502721      6.9675152969
 H      5.0348505136      0.5438285074      7.0668374181
 H      2.5867787511      1.7814279469      6.6081450991
 H      5.0557886821      5.5306394184      7.4302388382
 H      2.0311051356     -0.0255055406      3.4253114660
 H      5.5782023205      0.8836401546      3.7763931231
 H      3.1206585087      3.9823888508      2.7190685344
 H     -1.1620646474      5.5627956194      3.5257604094
 H      1.8640840868      4.7437533615      3.0966936281
 H     -0.3631619512      1.5778773815      3.7954250815
 O      3.3456052746      0.6628031317     -0.2693631546
 O     -1.1736932933      7.2671673747      0.3659821625
 O     -0.5613619571      2.1368878396      0.2918301610
 O      5.3845073955      1.6666126557      0.4257491381
 O      1.8229088701      3.4482443818     -0.3457717032
 O      4.9076260399     -0.4648604366      3.9378102100
 O      1.8547308117      6.2662884587      3.8983377205
 O     -2.0644302545      4.2897542324      3.9477647568
 O      4.5395003309      3.9336542534      4.2315427160
 O      1.4189501331      1.5849852719      3.7744666942
 O      4.3715996269     -0.0475280045      6.8084532380
 O      0.3868759909      6.4023832757      6.7243888042
 O     -2.1169957596      4.3708834909      6.9006651871
 O      4.8892030038      4.6244615608      7.1210023887
 O      1.6572697857      1.8879860848      6.4437847394
 O      2.3995329550     -0.9047028135      3.1155002542
 O     -0.7433857715      6.5231119617      3.5134306033
 O     -1.3024498413      1.7924092394      3.5077236233
 O      5.9394186284      1.8311953917      3.5656750992
 O      2.1419551158      3.9280981558      2.5617276667
 H      4.2716456018     -0.6032418708      7.5763029865
 H      0.3782612376      5.9287975872      7.5565980637
 H     -2.2249834143      3.4378915233      6.8228360931
 H      4.8783204672      4.6483420629      6.1628876872
 H      2.2824577232     -0.8969383998      2.1145958866
 H     -1.4428688438      7.1093579010      3.1947881053
 H     -0.9954799819      1.9173933482      2.5733103036
 H      6.9278224204      1.7555225170      3.5756119647
60
# ORCA AIMD Position Step 194, t=97.00 fs, E_Pot=-1525.78579983 Hartree, Unit is Angstrom
 H      3.1675715654      1.2940339145      0.3892969173
 H     -0.6322602943      6.9790540596      1.1941657264
 H     -0.3908144429      2.6963552606     -0.4469067759
 H      5.5302485993      1.6755295025      1.4461296400
 H      2.0390648733      3.9535815205      0.4261444584
 H      4.8463925885     -0.6400368233      4.8942609156
 H      1.9536658422      6.3178983507      4.8540506506
 H     -2.2470969554      4.4398514034      4.8829932851
 H      3.7516574886      3.6689402662      4.7113732210
 H      1.5898911349      1.7681936012      4.7633936226
 H      4.2699022447      0.8675308247     -0.4420230210
 H     -1.8295059386      6.5068187410      0.3219623237
 H      0.3741526048      1.8008453608      0.3590069759
 H      6.1188935990      2.2559712582      0.2414891565
 H      2.5949582012      2.8966356750     -0.5991422719
 H      4.0228227113     -0.7291436549      3.5548087556
 H      0.9210174864      6.6867083001      3.7810812191
 H     -1.6856858557      3.3348380797      3.9877694605
 H      5.0809143912      3.1179455721      4.0379773628
 H      1.6524931273      2.5085467946      3.3235509125
 H     -0.4489799723      6.1050661766      6.3769297092
 H     -2.9950503201      4.6641565529      7.2043683924
 H      1.3548705777      1.1284623255      6.9600258190
 H      5.0353757990      0.5452323849      7.0607645773
 H      2.5932254755      1.7804978734      6.6112647907
 H      5.0490641694      5.5317048529      7.4437669842
 H      2.0336053985     -0.0405771681      3.4249538708
 H      5.5681499074      0.8859381042      3.7843906242
 H      3.1347498422      3.9845278485      2.7295658773
 H     -1.1579968080      5.5611221821      3.5288318361
 H      1.8605570998      4.7390014121      3.0882043005
 H     -0.3640858310      1.5664209587      3.7920955852
 O      3.3478458943      0.6678398478     -0.2698385693
 O     -1.1725498784      7.2695275214      0.3677712040
 O     -0.5568058087      2.1376762835      0.2920566256
 O      5.3808352702      1.6665743991      0.4287520393
 O      1.8189359415      3.4399327301     -0.3460972654
 O      4.9078246049     -0.4655687850      3.9400968131
 O      1.8566304703      6.2649221119      3.9011054836
 O     -2.0616468539      4.2926430046      3.9492074401
 O      4.5356283747      3.9342498516      4.2352023722
 O      1.4198736709      1.5839562921      3.7757761805
 O      4.3675437053     -0.0471574657      6.8082142258
 O      0.3840986668      6.3999903129      6.7236579275
 O     -2.1143997855      4.3715390465      6.9012167157
 O      4.8890450492      4.6255163835      7.1208333980
 O      1.6603480762      1.8861642413      6.4420614730
 O      2.3994094859     -0.9089780383      3.1130197489
 O     -0.7432131658      6.5224528630      3.5134672419
 O     -1.3027034641      1.7890323169      3.5070206128
 O      5.9374436359      1.8255832885      3.5647621443
 O      2.1409185554      3.9258559681      2.5565344530
 H      4.2599191631     -0.5944006105      7.5755182455
 H      0.3608148810      5.9197569843      7.5550682014
 H     -2.2145258340      3.4267442094      6.8341240690
 H      4.8829724199      4.6514492149      6.1689473861
 H      2.2948630231     -0.9005547669      2.1091542962
 H     -1.4580363287      7.1079153520      3.1869177682
 H     -0.9941639403      1.9197191017      2.5652775946
 H      6.9340393814      1.7363341549      3.5845936290
60
# ORCA AIMD Position Step 195, t=97.50 fs, E_Pot=-1525.78848020 Hartree, Unit is Angstrom
 H      3.1555227914      1.2936681222      0.3849714998
 H     -0.6362254648      6.9869799540      1.1705680246
 H     -0.3841222849      2.7013543931     -0.4588676971
 H      5.5200022849      1.6653595551      1.4384871372
 H      2.0348508154      3.9520626681      0.4121830248
 H      4.8466491262     -0.6385957632      4.8918003395
 H      1.9528638270      6.3168600294      4.8554225321
 H     -2.2581090725      4.4545402965      4.8801344358
 H      3.7420602753      3.6503446913      4.7081796829
 H      1.5904133497      1.7695674628      4.7585781600
 H      4.2703597976      0.8742741565     -0.4502586751
 H     -1.8285355507      6.5111916829      0.3274780366
 H      0.3783019284      1.8019144316      0.3724212584
 H      6.1278305153      2.2493777080      0.2381832737
 H      2.5954980257      2.8929181017     -0.6085211871
 H      4.0215109557     -0.7422716434      3.5518201599
 H      0.9255482568      6.6881269277      3.7754913700
 H     -1.6891766951      3.3298061531      3.9974321029
 H      5.0847544374      3.1080591508      4.0308057537
 H      1.6448172261      2.5149942719      3.3242382184
 H     -0.4519431689      6.0996597528      6.3580599993
 H     -2.9958714327      4.6608044805      7.1984906630
 H      1.3593568525      1.1157081682      6.9526801458
 H      5.0407963577      0.5510968853      7.0562497090
 H      2.6034445571      1.7798239739      6.6145723715
 H      5.0421897192      5.5325277285      7.4563032548
 H      2.0357158919     -0.0547071970      3.4237637391
 H      5.5575275226      0.8881882225      3.7916737312
 H      3.1469114870      3.9863608940      2.7399905620
 H     -1.1535351662      5.5614460187      3.5324283669
 H      1.8569574490      4.7348691715      3.0796883840
 H     -0.3654856966      1.5550057133      3.7898604530
 O      3.3498349740      0.6725214317     -0.2706259635
 O     -1.1713950574      7.2716516039      0.3698197478
 O     -0.5521860437      2.1382060439      0.2925226476
 O      5.3773804680      1.6666403769      0.4321530623
 O      1.8149115754      3.4314946853     -0.3466489381
 O      4.9081283016     -0.4662853085      3.9423775105
 O      1.8583463232      6.2636435631      3.9037188089
 O     -2.0587954542      4.2954083870      3.9505934532
 O      4.5318540607      3.9349734580      4.2387778778
 O      1.4208742741      1.5831393761      3.7771428205
 O      4.3632118893     -0.0469007173      6.8077030935
 O      0.3814808041      6.3976877369      6.7229349440
 O     -2.1117984244      4.3723897903      6.9017721176
 O      4.8888720013      4.6265107921      7.1209251706
 O      1.6633277271      1.8843863163      6.4403512582
 O      2.3993160845     -0.9133059477      3.1103580916
 O     -0.7431153229      6.5217139095      3.5134519845
 O     -1.3027604625      1.7856437643      3.5062228752
 O      5.9356670793      1.8199441042      3.5637971853
 O      2.1400346770      3.9236160881      2.5514001725
 H      4.2476799649     -0.5878065519      7.5772999993
 H      0.3441876673      5.9099157601      7.5553696741
 H     -2.2041642839      3.4126141134      6.8452405882
 H      4.8880568146      4.6553384687      6.1713175550
 H      2.3076463212     -0.9036407153      2.1070703278
 H     -1.4727932829      7.1060198883      3.1792125055
 H     -0.9953601058      1.9225832753      2.5573114873
 H      6.9373695804      1.7174853851      3.5936568122
60
# ORCA AIMD Position Step 196, t=98.00 fs, E_Pot=-1525.79130857 Hartree, Unit is Angstrom
 H      3.1421131411      1.2978138132      0.3856806092
 H     -0.6413561131      6.9954747251      1.1451311465
 H     -0.3773120119      2.7087657616     -0.4727196874
 H      5.5084158870      1.6542302737      1.4289337466
 H      2.0320240800      3.9520583254      0.4021355140
 H      4.8461509492     -0.6375170202      4.8908884894
 H      1.9520346422      6.3155691374      4.8595135158
 H     -2.2694866852      4.4701519867      4.8793037838
 H      3.7313627752      3.6307342059      4.7056770695
 H      1.5901138920      1.7701629776      4.7521723647
 H      4.2726209521      0.8810994272     -0.4583871063
 H     -1.8255206925      6.5178245660      0.3329605111
 H      0.3810268381      1.8035875898      0.3860112654
 H      6.1374113008      2.2434995329      0.2333331989
 H      2.5955811418      2.8898948901     -0.6172397661
 H      4.0195279840     -0.7548988797      3.5488345907
 H      0.9325831851      6.6874736698      3.7698766260
 H     -1.6932789533      3.3263930309      4.0050484567
 H      5.0878602134      3.0988830604      4.0242589509
 H      1.6366586015      2.5185017186      3.3255670797
 H     -0.4569825712      6.0937731747      6.3371591814
 H     -2.9966779011      4.6574920841      7.1926265634
 H      1.3625054675      1.1024608827      6.9451488783
 H      5.0500272174      0.5603901003      7.0529543470
 H      2.6164215865      1.7794959156      6.6179136779
 H      5.0351137470      5.5327950260      7.4676481700
 H      2.0371276513     -0.0671122583      3.4219749533
 H      5.5463041929      0.8902141780      3.7982158696
 H      3.1559303868      3.9878035143      2.7501172765
 H     -1.1487270991      5.5636171134      3.5365088763
 H      1.8532494156      4.7314806786      3.0712517191
 H     -0.3673661770      1.5436882154      3.7886502840
 O      3.3515784231      0.6768184172     -0.2717541479
 O     -1.1702942630      7.2735781768      0.3720241965
 O     -0.5474928964      2.1385416876      0.2931487206
 O      5.3741729170      1.6668381054      0.4358757551
 O      1.8108384926      3.4228812256     -0.3474826256
 O      4.9085042648     -0.4670161920      3.9446010438
 O      1.8598793707      6.2624518885      3.9061604420
 O     -2.0558719065      4.2980269134      3.9519272344
 O      4.5281721388      3.9357410910      4.2422791902
 O      1.4219482648      1.5825455954      3.7785309792
 O      4.3586695062     -0.0466934247      6.8069324872
 O      0.3789636760      6.3954372007      6.7222294706
 O     -2.1091989409      4.3733293808      6.9023212981
 O      4.8886867640      4.6274583239      7.1213081283
 O      1.6662569509      1.8826167322      6.4386863453
 O      2.3992808750     -0.9177394388      3.1075082877
 O     -0.7431513749      6.5209551825      3.5133584647
 O     -1.3026144735      1.7822497927      3.5052920210
 O      5.9341274945      1.8142855110      3.5627851127
 O      2.1393819050      3.9213750709      2.5463359746
 H      4.2349720241     -0.5834349473      7.5817914525
 H      0.3283247200      5.8995647672      7.5569423092
 H     -2.1937528735      3.3972572608      6.8563133685
 H      4.8935550697      4.6600949335      6.1697134773
 H      2.3207048537     -0.9061532282      2.1082027959
 H     -1.4861035582      7.1028873791      3.1721182023
 H     -0.9991935538      1.9258920577      2.5501120504
 H      6.9372003924      1.6991091967      3.6027506004
60
# ORCA AIMD Position Step 197, t=98.50 fs, E_Pot=-1525.79250465 Hartree, Unit is Angstrom
 H      3.1276102574      1.3060062703      0.3908236413
 H     -0.6460999096      7.0038285914      1.1200674621
 H     -0.3705577350      2.7172795077     -0.4868120366
 H      5.4957892060      1.6422674159      1.4185963357
 H      2.0307145823      3.9537766911      0.3962237592
 H      4.8448541397     -0.6369022362      4.8919355003
 H      1.9511010894      6.3140273360      4.8661266972
 H     -2.2810960525      4.4864723547      4.8801026845
 H      3.7204329341      3.6104958746      4.7033692440
 H      1.5891127534      1.7700717709      4.7448093855
 H      4.2763192504      0.8880853577     -0.4661670282
 H     -1.8207807005      6.5264189695      0.3383147525
 H      0.3824299570      1.8059413090      0.3996093727
 H      6.1468953034      2.2377478662      0.2273532320
 H      2.5950093736      2.8877197815     -0.6252034226
 H      4.0173852037     -0.7667986575      3.5461396612
 H      0.9419189163      6.6848708818      3.7643108422
 H     -1.6980468484      3.3248784380      4.0106922340
 H      5.0897967057      3.0912351565      4.0185260866
 H      1.6280647970      2.5189604042      3.3275304454
 H     -0.4628517296      6.0878120484      6.3148280527
 H     -2.9975066092      4.6541684983      7.1868074227
 H      1.3646159853      1.0892611619      6.9370849260
 H      5.0614863993      0.5716417782      7.0504160438
 H      2.6308609218      1.7795905245      6.6210969153
 H      5.0278093742      5.5323009617      7.4776466771
 H      2.0375865934     -0.0771382409      3.4198054678
 H      5.5344655078      0.8918758157      3.8039911775
 H      3.1609696506      3.9887876667      2.7597525885
 H     -1.1436568549      5.5673820944      3.5410252543
 H      1.8494120428      4.7289086165      3.0629674453
 H     -0.3697342999      1.5325323925      3.7883570427
 O      3.3530784707      0.6807540343     -0.2732009997
 O     -1.1693254013      7.2753712480      0.3742505541
 O     -0.5427245053      2.1387590251      0.2938427872
 O      5.3712451700      1.6671981753      0.4398211031
 O      1.8067235130      3.4140702573     -0.3486187379
 O      4.9089181275     -0.4677709074      3.9467268892
 O      1.8612464505      6.2613407646      3.9084381180
 O     -2.0528803576      4.3004876379      3.9532308407
 O      4.5245588692      3.9364738206      4.2457237643
 O      1.4230878795      1.5821740434      3.7798981681
 O      4.3540074536     -0.0464632166      6.8059484887
 O      0.3764724166      6.3931902880      6.7215480660
 O     -2.1066066486      4.3742507213      6.9028567286
 O      4.8884908477      4.6283677217      7.1219732655
 O      1.6691976774      1.8808162223      6.4371020330
 O      2.3993294673     -0.9223220780      3.1044846993
 O     -0.7433648689      6.5202304071      3.5131662338
 O     -1.3022649243      1.7788559004      3.5042001611
 O      5.9328407608      1.8086145807      3.5617315458
 O      2.1390146287      3.9191323560      2.5413522670
 H      4.2219317703     -0.5809488282      7.5887263714
 H      0.3131669812      5.8890734243      7.5590711596
 H     -2.1831826481      3.3824489369      6.8674281677
 H      4.8994458627      4.6657680240      6.1644282571
 H      2.3339203906     -0.9080653913      2.1120890754
 H     -1.4971451913      7.0979388904      3.1659872212
 H     -1.0057003550      1.9295478172      2.5442346735
 H      6.9332605594      1.6813150392      3.6118228865
60
# ORCA AIMD Position Step 198, t=99.00 fs, E_Pot=-1525.79117207 Hartree, Unit is Angstrom
 H      3.1125423886      1.3171389506      0.3991008809
 H     -0.6485798113      7.0111936654      1.0979387565
 H     -0.3640153505      2.7256613977     -0.4995731593
 H      5.4824687851      1.6295806361      1.4088346072
 H      2.0308698276      3.9570198168      0.3941012539
 H      4.8427345767     -0.6368000032      4.8950987990
 H      1.9499482967      6.3122196143      4.8747317887
 H     -2.2927284729      4.5032061218      4.8819023803
 H      3.7101691657      3.5900738553      4.7007638622
 H      1.5875623688      1.7694236475      4.7372743519
 H      4.2809214253      0.8952838693     -0.4733081663
 H     -1.8148359684      6.5364563396      0.3434330889
 H      0.3827589825      1.8089973994      0.4130645831
 H      6.1555533097      2.2315685349      0.2206958653
 H      2.5936998501      2.8864561691     -0.6323650103
 H      4.0155530158     -0.7777507338      3.5440049765
 H      0.9531465309      6.6805542034      3.7588381798
 H     -1.7034942743      3.3254187654      4.0144828948
 H      5.0902676704      3.0857375020      4.0137511417
 H      1.6191066818      2.5163975207      3.3300644850
 H     -0.4682581613      6.0821954734      6.2917694956
 H     -2.9983831511      4.6507800268      7.1810632485
 H      1.3660078945      1.0766457001      6.9281696481
 H      5.0734548899      0.5832737859      7.0481698087
 H      2.6454019708      1.7801581232      6.6239252946
 H      5.0202747496      5.5309692547      7.4862040429
 H      2.0369355916     -0.0843586730      3.4174145096
 H      5.5220175241      0.8930788986      3.8089707619
 H      3.1615438280      3.9892615615      2.7687375346
 H     -1.1384390198      5.5723899753      3.5459266806
 H      1.8454390900      4.7271665648      3.0548701969
 H     -0.3725942803      1.5216047837      3.7888412020
 O      3.3543310224      0.6843936239     -0.2749033582
 O     -1.1685741791      7.2771173304      0.3763436110
 O     -0.5378895101      2.1389325001      0.2945167199
 O      5.3686265910      1.6677500338      0.4438728748
 O      1.8025776693      3.4050710957     -0.3500386115
 O      4.9093369171     -0.4685617989      3.9487313526
 O      1.8624799368      6.2602980967      3.9105825923
 O     -2.0498327172      4.3027925456      3.9545390180
 O      4.5209802131      3.9371016307      4.2491321864
 O      1.4242820311      1.5820123506      3.7811971646
 O      4.3493203710     -0.0461462845      6.8048192724
 O      0.3739292790      6.3908964483      6.7208935493
 O     -2.1040247925      4.3750601306      6.9033741008
 O      4.8882849378      4.6292420629      7.1228750509
 O      1.6722145044      1.8789472479      6.4356317008
 O      2.3994813090     -0.9270821354      3.1013247080
 O     -0.7437815382      6.5195853105      3.5128616323
 O     -1.3017174995      1.7754666752      3.5029312557
 O      5.9317996834      1.8029379088      3.5606421736
 O      2.1389646245      3.9168909171      2.5364585583
 H      4.2087745451     -0.5797670777      7.5974878558
 H      0.2986602556      5.8788336079      7.5609967031
 H     -2.1723920139      3.3697539512      6.8786217506
 H      4.9056955141      4.6723635711      6.1562716227
 H      2.3471732680     -0.9093621123      2.1179609146
 H     -1.5053516215      7.0908209967      3.1610592851
 H     -1.0148240938      1.9334555775      2.5400623982
 H      6.9256251241      1.6641741606      3.6208304200
60
# ORCA AIMD Position Step 199, t=99.50 fs, E_Pot=-1525.78799803 Hartree, Unit is Angstrom
 H      3.0975987825      1.3297836260      0.4088585746
 H     -0.6468728829      7.0167162060      1.0812452408
 H     -0.3577961663      2.7328796563     -0.5096875082
 H      5.4688203458      1.6162527493      1.4011119454
 H      2.0322736028      3.9612236021      0.3949487841
 H      4.8397919922     -0.6372010216      4.9002529894
 H      1.9484380023      6.3101204694      4.8845607779
 H     -2.3041218146      4.5199976127      4.8839537571
 H      3.7013859477      3.5699229118      4.6974370929
 H      1.5856343404      1.7683754570      4.7304438215
 H      4.2858115724      0.9027239824     -0.4794999898
 H     -1.8083818353      6.5472161396      0.3482103752
 H      0.3823856888      1.8127249435      0.4262550137
 H      6.1627546027      2.2245019084      0.2138225965
 H      2.5916914764      2.8860765971     -0.6387301301
 H      4.0144247824     -0.7875580805      3.5426613272
 H      0.9656532353      6.6748690008      3.7534660970
 H     -1.7095941010      3.3280348167      4.0165813437
 H      5.0891074469      3.0828273089      4.0100297977
 H      1.6098748743      2.5109806288      3.3330481173
 H     -0.4720369968      6.0773001509      6.2686942724
 H     -2.9993136145      4.6472738420      7.1754202398
 H      1.3669859844      1.0650864861      6.9181482457
 H      5.0843568569      0.5938537451      7.0458267519
 H      2.6587935195      1.7812159965      6.6262241393
 H      5.0125307950      5.5288595283      7.4932948687
 H      2.0351457912     -0.0886454668      3.4148682320
 H      5.5089915886      0.8937822988      3.8131195816
 H      3.1574889404      3.9891889625      2.7769482326
 H     -1.1332120121      5.5782005397      3.5511647523
 H      1.8413390297      4.7262054435      3.0469539439
 H     -0.3759410036      1.5109706501      3.7899390870
 O      3.3553269565      0.6878243281     -0.2767769419
 O     -1.1681181983      7.2789159776      0.3781519505
 O     -0.5330073025      2.1391271905      0.2950965800
 O      5.3663392975      1.6685188208      0.4479077722
 O      1.7984145801      3.3959218419     -0.3516901763
 O      4.9097311405     -0.4694034446      3.9506107518
 O      1.8636266604      6.2593057248      3.9126420344
 O     -2.0467472282      4.3049561687      3.9558924372
 O      4.5173994488      3.9375658380      4.2525245227
 O      1.4255172046      1.5820371178      3.7823798956
 O      4.3446907252     -0.0456965783      6.8036224421
 O      0.3712642021      6.3885096884      6.7202648195
 O     -2.1014551682      4.3756852205      6.9038722027
 O      4.8880694822      4.6300786003      7.1239414172
 O      1.6753659979      1.8769782758      6.4343028574
 O      2.3997467606     -0.9320284864      3.0980882269
 O     -0.7444085883      6.5190568853      3.5124380669
 O     -1.3009843099      1.7720856410      3.5014817164
 O      5.9309740615      1.7972617504      3.5595220975
 O      2.1392428061      3.9146575342      2.5316632994
 H      4.1957664631     -0.5791731626      7.6072310566
 H      0.2847590197      5.8692084908      7.5620120443
 H     -2.1613637668      3.3603974589      6.8898866787
 H      4.9122505587      4.6798407875      6.1464036342
 H      2.3603560107     -0.9100346686      2.1247860630
 H     -1.5104289445      7.0814083382      3.1574522272
 H     -1.0264184829      1.9375285518      2.5377907752
 H      6.9147125513      1.6477067157      3.6297482659
60
# ORCA AIMD Position Step 200, t=100.00 fs, E_Pot=-1525.78483991 Hartree, Unit is Angstrom
 H      3.0835033612      1.3425029112      0.4184318831
 H     -0.6394952803      7.0197574218      1.0717864583
 H     -0.3519593015      2.7381622656     -0.5161784742
 H      5.4551957630      1.6023410831      1.3967783585
 H      2.0345955421      3.9655816969      0.3976663181
 H      4.8360519914     -0.6380426264      4.9070105245
 H      1.9464265203      6.3077021670      4.8947347016
 H     -2.3149891457      4.5364584735      4.8855015998
 H      3.6947344683      3.5504697731      4.6930747207
 H      1.5835008684      1.7670933618      4.7251926766
 H      4.2903708386      0.9104150601     -0.4844412373
 H     -1.8022349501      6.5578195863      0.3525619216
 H      0.3817694390      1.8170490859      0.4390934798
 H      6.1680301581      2.2162224280      0.2071757867
 H      2.5891350659      2.8864724109     -0.6443551893
 H      4.0142952173     -0.7960591576      3.5422855107
 H      0.9786406723      6.6682565085      3.7481620285
 H     -1.7162768749      3.3326029251      4.0171829819
 H      5.0862670732      3.0827754919      4.0074101784
 H      1.6004785991      2.5030262270      3.3363005839
 H     -0.4732574688      6.0734270498      6.2462503273
 H     -3.0002777209      4.6436007377      7.1698996210
 H      1.3678140445      1.0549465040      6.9068533055
 H      5.0929138881      0.6022327202      7.0431048361
 H      2.6700081160      1.7827484159      6.6278584281
 H      5.0046173266      5.5261562428      7.4989623311
 H      2.0323246697     -0.0901846324      3.4121268561
 H      5.4954492241      0.8939985845      3.8163948059
 H      3.1489443100      3.9885488123      2.7842993008
 H     -1.1281298010      5.5843000294      3.5566978281
 H      1.8371336103      4.7259177840      3.0391760149
 H     -0.3797492325      1.5006912362      3.7914703112
 O      3.3560553940      0.6911352014     -0.2787361216
 O     -1.1679998043      7.2808631382      0.3795671302
 O     -0.5281061293      2.1393947183      0.2955274214
 O      5.3643959709      1.6695227933      0.4518110706
 O      1.7942478908      3.3866809108     -0.3535002161
 O      4.9100760585     -0.4703117166      3.9523810414
 O      1.8647455395      6.2583396003      3.9146742192
 O     -2.0436465611      4.3070046054      3.9573307362
 O      4.5137828467      3.9378205219      4.2559177699
 O      1.4267785204      1.5822144967      3.7834033992
 O      4.3401811385     -0.0450873874      6.8024342219
 O      0.3684213773      6.3859930317      6.7196568226
 O     -2.0988990399      4.3760780169      6.9043524018
 O      4.8878451083      4.6308694427      7.1250869645
 O      1.6786992514      1.8748865916      6.4331345876
 O      2.4001257177     -0.9371499988      3.0948531167
 O     -0.7452347072      6.5186725001      3.5118961294
 O     -1.3000841104      1.7687151497      3.4998605421
 O      5.9303114566      1.7915924133      3.5583752016
 O      2.1398403270      3.9124425110      2.5269733210
 H      4.1831914305     -0.5784284109      7.6170243723
 H      0.2714264427      5.8604939289      7.5615343701
 H     -2.1501157706      3.3552121067      6.9011806371
 H      4.9190350613      4.6881138207      6.1361275669
 H      2.3733850456     -0.9100744777      2.1313540192
 H     -1.5123633694      7.0698006752      3.1551568110
 H     -1.0402527404      1.9416928728      2.5374210728
 H      6.9012711278      1.6318710435      3.6385779441
