13
* (null), Energy   -1000.0000000
C     0.023402   -1.864481    0.001895    0.151409    0.003547   -0.000035
C     0.007954   -1.172228    1.214767    0.114167    0.002398    0.000178
C    -0.023419    0.221287    1.209538   -0.058898   -0.001467    0.000062
C    -0.039340    0.950437    0.006405   -0.165448   -0.003635    0.000031
C    -0.023820    0.241625   -1.202680    0.094132    0.002056   -0.000027
C     0.007268   -1.152453   -1.202447    0.115228    0.002526   -0.000130
H     0.047934   -2.954784    0.003291   -1.383146   -0.031076    0.000117
H     0.019839   -1.705046    2.166319   -0.808787   -0.018634   -0.000094
H    -0.036669    0.807051   -2.136218   -0.572867   -0.012805    0.000135
H     0.018934   -1.686448   -2.154037   -1.002881   -0.022680    0.000320
O    -0.069595    2.309371   -0.032584    0.031952    0.000909   -0.000099
H    -0.074977    2.646270    0.888789    0.082427    0.001810   -0.000104
Cl   -0.044832    1.115947    2.713693    0.005464    0.000122    0.000007
13
* Frequency(17)  728.7373
C     0.040609   -1.864078    0.001891    0.151409    0.003547   -0.000035
C     0.020928   -1.171955    1.214788    0.114167    0.002398    0.000178
C    -0.030112    0.221121    1.209545   -0.058898   -0.001467    0.000062
C    -0.058142    0.950024    0.006409   -0.165448   -0.003635    0.000031
C    -0.013123    0.241859   -1.202683    0.094132    0.002056   -0.000027
C     0.020363   -1.152166   -1.202462    0.115228    0.002526   -0.000130
H    -0.109253   -2.958315    0.003305   -1.383146   -0.031076    0.000117
H    -0.072075   -1.707163    2.166308   -0.808787   -0.018634   -0.000094
H    -0.101772    0.805596   -2.136202   -0.572867   -0.012805    0.000135
H    -0.095039   -1.689025   -2.154000   -1.002881   -0.022680    0.000320
O    -0.065963    2.309474   -0.032595    0.031952    0.000909   -0.000099
H    -0.065610    2.646475    0.888777    0.082427    0.001810   -0.000104
Cl   -0.044211    1.115961    2.713694    0.005464    0.000122    0.000007
13
* Frequency(17)  728.7373
C     0.055951   -1.863719    0.001888    0.151409    0.003547   -0.000035
C     0.032497   -1.171712    1.214806    0.114167    0.002398    0.000178
C    -0.036080    0.220972    1.209552   -0.058898   -0.001467    0.000062
C    -0.074907    0.949656    0.006412   -0.165448   -0.003635    0.000031
C    -0.003584    0.242068   -1.202685    0.094132    0.002056   -0.000027
C     0.032039   -1.151910   -1.202475    0.115228    0.002526   -0.000130
H    -0.249407   -2.961464    0.003317   -1.383146   -0.031076    0.000117
H    -0.154029   -1.709052    2.166299   -0.808787   -0.018634   -0.000094
H    -0.159821    0.804298   -2.136188   -0.572867   -0.012805    0.000135
H    -0.196660   -1.691324   -2.153968   -1.002881   -0.022680    0.000320
O    -0.062726    2.309566   -0.032605    0.031952    0.000909   -0.000099
H    -0.057257    2.646659    0.888767    0.082427    0.001810   -0.000104
Cl   -0.043657    1.115973    2.713694    0.005464    0.000122    0.000007
13
* Frequency(17)  728.7373
C     0.067766   -1.863442    0.001885    0.151409    0.003547   -0.000035
C     0.041406   -1.171525    1.214820    0.114167    0.002398    0.000178
C    -0.040676    0.220858    1.209557   -0.058898   -0.001467    0.000062
C    -0.087818    0.949372    0.006414   -0.165448   -0.003635    0.000031
C     0.003761    0.242228   -1.202687    0.094132    0.002056   -0.000027
C     0.041031   -1.151713   -1.202485    0.115228    0.002526   -0.000130
H    -0.357339   -2.963889    0.003326   -1.383146   -0.031076    0.000117
H    -0.217142   -1.710506    2.166291   -0.808787   -0.018634   -0.000094
H    -0.204524    0.803299   -2.136178   -0.572867   -0.012805    0.000135
H    -0.274919   -1.693093   -2.153943   -1.002881   -0.022680    0.000320
O    -0.060232    2.309637   -0.032613    0.031952    0.000909   -0.000099
H    -0.050825    2.646800    0.888759    0.082427    0.001810   -0.000104
Cl   -0.043231    1.115983    2.713695    0.005464    0.000122    0.000007
13
* Frequency(17)  728.7373
C     0.074773   -1.863278    0.001883    0.151409    0.003547   -0.000035
C     0.046690   -1.171414    1.214828    0.114167    0.002398    0.000178
C    -0.043402    0.220790    1.209559   -0.058898   -0.001467    0.000062
C    -0.095475    0.949204    0.006416   -0.165448   -0.003635    0.000031
C     0.008118    0.242323   -1.202689    0.094132    0.002056   -0.000027
C     0.046364   -1.151596   -1.202491    0.115228    0.002526   -0.000130
H    -0.421353   -2.965327    0.003331   -1.383146   -0.031076    0.000117
H    -0.254574   -1.711368    2.166287   -0.808787   -0.018634   -0.000094
H    -0.231037    0.802706   -2.136172   -0.572867   -0.012805    0.000135
H    -0.321334   -1.694143   -2.153928   -1.002881   -0.022680    0.000320
O    -0.058754    2.309679   -0.032617    0.031952    0.000909   -0.000099
H    -0.047010    2.646884    0.888754    0.082427    0.001810   -0.000104
Cl   -0.042978    1.115988    2.713695    0.005464    0.000122    0.000007
13
* Frequency(17)  728.7373
C     0.076214   -1.863244    0.001883    0.151409    0.003547   -0.000035
C     0.047776   -1.171391    1.214830    0.114167    0.002398    0.000178
C    -0.043963    0.220776    1.209560   -0.058898   -0.001467    0.000062
C    -0.097049    0.949170    0.006416   -0.165448   -0.003635    0.000031
C     0.009013    0.242343   -1.202689    0.094132    0.002056   -0.000027
C     0.047460   -1.151572   -1.202493    0.115228    0.002526   -0.000130
H    -0.434513   -2.965623    0.003332   -1.383146   -0.031076    0.000117
H    -0.262269   -1.711545    2.166286   -0.808787   -0.018634   -0.000094
H    -0.236487    0.802584   -2.136170   -0.572867   -0.012805    0.000135
H    -0.330876   -1.694359   -2.153925   -1.002881   -0.022680    0.000320
O    -0.058450    2.309688   -0.032618    0.031952    0.000909   -0.000099
H    -0.046226    2.646901    0.888753    0.082427    0.001810   -0.000104
Cl   -0.042926    1.115990    2.713695    0.005464    0.000122    0.000007
13
* Frequency(17)  728.7373
C     0.071931   -1.863344    0.001884    0.151409    0.003547   -0.000035
C     0.044547   -1.171459    1.214825    0.114167    0.002398    0.000178
C    -0.042297    0.220817    1.209558   -0.058898   -0.001467    0.000062
C    -0.092370    0.949272    0.006415   -0.165448   -0.003635    0.000031
C     0.006351    0.242285   -1.202688    0.094132    0.002056   -0.000027
C     0.044201   -1.151643   -1.202489    0.115228    0.002526   -0.000130
H    -0.395393   -2.964744    0.003329   -1.383146   -0.031076    0.000117
H    -0.239394   -1.711018    2.166289   -0.808787   -0.018634   -0.000094
H    -0.220285    0.802947   -2.136174   -0.572867   -0.012805    0.000135
H    -0.302511   -1.693717   -2.153934   -1.002881   -0.022680    0.000320
O    -0.059353    2.309662   -0.032616    0.031952    0.000909   -0.000099
H    -0.048558    2.646850    0.888756    0.082427    0.001810   -0.000104
Cl   -0.043081    1.115986    2.713695    0.005464    0.000122    0.000007
13
* Frequency(17)  728.7373
C     0.062390   -1.863568    0.001886    0.151409    0.003547   -0.000035
C     0.037352   -1.171610    1.214813    0.114167    0.002398    0.000178
C    -0.038585    0.220910    1.209554   -0.058898   -0.001467    0.000062
C    -0.081944    0.949501    0.006413   -0.165448   -0.003635    0.000031
C     0.000419    0.242155   -1.202686    0.094132    0.002056   -0.000027
C     0.036940   -1.151802   -1.202481    0.115228    0.002526   -0.000130
H    -0.308230   -2.962786    0.003322   -1.383146   -0.031076    0.000117
H    -0.188426   -1.709844    2.166295   -0.808787   -0.018634   -0.000094
H    -0.184184    0.803754   -2.136183   -0.572867   -0.012805    0.000135
H    -0.239312   -1.692288   -2.153954   -1.002881   -0.022680    0.000320
O    -0.061367    2.309605   -0.032609    0.031952    0.000909   -0.000099
H    -0.053752    2.646736    0.888763    0.082427    0.001810   -0.000104
Cl   -0.043425    1.115978    2.713695    0.005464    0.000122    0.000007
13
* Frequency(17)  728.7373
C     0.048624   -1.863890    0.001889    0.151409    0.003547   -0.000035
C     0.026972   -1.171828    1.214797    0.114167    0.002398    0.000178
C    -0.033230    0.221043    1.209549   -0.058898   -0.001467    0.000062
C    -0.066901    0.949832    0.006410   -0.165448   -0.003635    0.000031
C    -0.008140    0.241968   -1.202684    0.094132    0.002056   -0.000027
C     0.026463   -1.152032   -1.202469    0.115228    0.002526   -0.000130
H    -0.182472   -2.959960    0.003311   -1.383146   -0.031076    0.000117
H    -0.114890   -1.708150    2.166303   -0.808787   -0.018634   -0.000094
H    -0.132098    0.804918   -2.136195   -0.572867   -0.012805    0.000135
H    -0.148128   -1.690226   -2.153983   -1.002881   -0.022680    0.000320
O    -0.064272    2.309522   -0.032600    0.031952    0.000909   -0.000099
H    -0.061246    2.646571    0.888772    0.082427    0.001810   -0.000104
Cl   -0.043922    1.115967    2.713694    0.005464    0.000122    0.000007
13
* Frequency(17)  728.7373
C     0.032124   -1.864277    0.001893    0.151409    0.003547   -0.000035
C     0.014531   -1.172089    1.214778    0.114167    0.002398    0.000178
C    -0.026812    0.221203    1.209542   -0.058898   -0.001467    0.000062
C    -0.048871    0.950228    0.006407   -0.165448   -0.003635    0.000031
C    -0.018397    0.241744   -1.202681    0.094132    0.002056   -0.000027
C     0.013906   -1.152307   -1.202455    0.115228    0.002526   -0.000130
H    -0.031746   -2.956574    0.003298   -1.383146   -0.031076    0.000117
H    -0.026753   -1.706119    2.166314   -0.808787   -0.018634   -0.000094
H    -0.069671    0.806313   -2.136210   -0.572867   -0.012805    0.000135
H    -0.038840   -1.687754   -2.154018   -1.002881   -0.022680    0.000320
O    -0.067754    2.309423   -0.032590    0.031952    0.000909   -0.000099
H    -0.070229    2.646374    0.888783    0.082427    0.001810   -0.000104
Cl   -0.044517    1.115954    2.713693    0.005464    0.000122    0.000007
13
* Frequency(17)  728.7373
C     0.014679   -1.864686    0.001897    0.151409    0.003547   -0.000035
C     0.001377   -1.172366    1.214757    0.114167    0.002398    0.000178
C    -0.020026    0.221372    1.209535   -0.058898   -0.001467    0.000062
C    -0.029809    0.950647    0.006404   -0.165448   -0.003635    0.000031
C    -0.029243    0.241507   -1.202678    0.094132    0.002056   -0.000027
C     0.000630   -1.152598   -1.202440    0.115228    0.002526   -0.000130
H     0.127615   -2.952993    0.003285   -1.383146   -0.031076    0.000117
H     0.066432   -1.703972    2.166324   -0.808787   -0.018634   -0.000094
H    -0.003667    0.807789   -2.136225   -0.572867   -0.012805    0.000135
H     0.076708   -1.685141   -2.154055   -1.002881   -0.022680    0.000320
O    -0.071435    2.309318   -0.032578    0.031952    0.000909   -0.000099
H    -0.079725    2.646165    0.888795    0.082427    0.001810   -0.000104
Cl   -0.045147    1.115940    2.713693    0.005464    0.000122    0.000007
13
* Frequency(17)  728.7373
C    -0.001820   -1.865072    0.001901    0.151409    0.003547   -0.000035
C    -0.011064   -1.172627    1.214738    0.114167    0.002398    0.000178
C    -0.013607    0.221532    1.209528   -0.058898   -0.001467    0.000062
C    -0.011779    0.951043    0.006400   -0.165448   -0.003635    0.000031
C    -0.039501    0.241283   -1.202675    0.094132    0.002056   -0.000027
C    -0.011927   -1.152874   -1.202425    0.115228    0.002526   -0.000130
H     0.278341   -2.949607    0.003272   -1.383146   -0.031076    0.000117
H     0.154568   -1.701942    2.166335   -0.808787   -0.018634   -0.000094
H     0.058760    0.809184   -2.136240   -0.572867   -0.012805    0.000135
H     0.185995   -1.682670   -2.154090   -1.002881   -0.022680    0.000320
O    -0.074917    2.309219   -0.032567    0.031952    0.000909   -0.000099
H    -0.088708    2.645968    0.888807    0.082427    0.001810   -0.000104
Cl   -0.045742    1.115926    2.713692    0.005464    0.000122    0.000007
13
* Frequency(17)  728.7373
C    -0.015587   -1.865395    0.001904    0.151409    0.003547   -0.000035
C    -0.021445   -1.172845    1.214721    0.114167    0.002398    0.000178
C    -0.008252    0.221665    1.209522   -0.058898   -0.001467    0.000062
C     0.003263    0.951373    0.006397   -0.165448   -0.003635    0.000031
C    -0.048060    0.241096   -1.202673    0.094132    0.002056   -0.000027
C    -0.022403   -1.153103   -1.202414    0.115228    0.002526   -0.000130
H     0.404099   -2.946782    0.003261   -1.383146   -0.031076    0.000117
H     0.228105   -1.700248    2.166343   -0.808787   -0.018634   -0.000094
H     0.110847    0.810348   -2.136252   -0.572867   -0.012805    0.000135
H     0.277179   -1.680608   -2.154119   -1.002881   -0.022680    0.000320
O    -0.077822    2.309137   -0.032558    0.031952    0.000909   -0.000099
H    -0.096202    2.645804    0.888816    0.082427    0.001810   -0.000104
Cl   -0.046239    1.115915    2.713691    0.005464    0.000122    0.000007
13
* Frequency(17)  728.7373
C    -0.025128   -1.865618    0.001906    0.151409    0.003547   -0.000035
C    -0.028639   -1.172996    1.214710    0.114167    0.002398    0.000178
C    -0.004541    0.221758    1.209518   -0.058898   -0.001467    0.000062
C     0.013689    0.951602    0.006395   -0.165448   -0.003635    0.000031
C    -0.053991    0.240966   -1.202671    0.094132    0.002056   -0.000027
C    -0.029665   -1.153262   -1.202405    0.115228    0.002526   -0.000130
H     0.491261   -2.944823    0.003254   -1.383146   -0.031076    0.000117
H     0.279072   -1.699073    2.166349   -0.808787   -0.018634   -0.000094
H     0.146947    0.811155   -2.136261   -0.572867   -0.012805    0.000135
H     0.340378   -1.679179   -2.154139   -1.002881   -0.022680    0.000320
O    -0.079836    2.309079   -0.032552    0.031952    0.000909   -0.000099
H    -0.101396    2.645690    0.888823    0.082427    0.001810   -0.000104
Cl   -0.046583    1.115908    2.713691    0.005464    0.000122    0.000007
13
* Frequency(17)  728.7373
C    -0.029411   -1.865718    0.001907    0.151409    0.003547   -0.000035
C    -0.031868   -1.173064    1.214705    0.114167    0.002398    0.000178
C    -0.002875    0.221799    1.209517   -0.058898   -0.001467    0.000062
C     0.018369    0.951705    0.006395   -0.165448   -0.003635    0.000031
C    -0.056654    0.240908   -1.202670    0.094132    0.002056   -0.000027
C    -0.032924   -1.153334   -1.202402    0.115228    0.002526   -0.000130
H     0.530382   -2.943944    0.003251   -1.383146   -0.031076    0.000117
H     0.301948   -1.698546    2.166352   -0.808787   -0.018634   -0.000094
H     0.163150    0.811517   -2.136265   -0.572867   -0.012805    0.000135
H     0.368743   -1.678537   -2.154148   -1.002881   -0.022680    0.000320
O    -0.080739    2.309054   -0.032549    0.031952    0.000909   -0.000099
H    -0.103728    2.645638    0.888826    0.082427    0.001810   -0.000104
Cl   -0.046738    1.115904    2.713691    0.005464    0.000122    0.000007
13
* Frequency(17)  728.7373
C    -0.027970   -1.865685    0.001907    0.151409    0.003547   -0.000035
C    -0.030782   -1.173041    1.214707    0.114167    0.002398    0.000178
C    -0.003435    0.221785    1.209517   -0.058898   -0.001467    0.000062
C     0.016795    0.951670    0.006395   -0.165448   -0.003635    0.000031
C    -0.055758    0.240928   -1.202670    0.094132    0.002056   -0.000027
C    -0.031828   -1.153310   -1.202403    0.115228    0.002526   -0.000130
H     0.517222   -2.944240    0.003252   -1.383146   -0.031076    0.000117
H     0.294253   -1.698724    2.166351   -0.808787   -0.018634   -0.000094
H     0.157700    0.811396   -2.136264   -0.572867   -0.012805    0.000135
H     0.359201   -1.678753   -2.154145   -1.002881   -0.022680    0.000320
O    -0.080435    2.309062   -0.032550    0.031952    0.000909   -0.000099
H    -0.102944    2.645656    0.888825    0.082427    0.001810   -0.000104
Cl   -0.046686    1.115905    2.713691    0.005464    0.000122    0.000007
13
* Frequency(17)  728.7373
C    -0.020962   -1.865521    0.001905    0.151409    0.003547   -0.000035
C    -0.025498   -1.172930    1.214715    0.114167    0.002398    0.000178
C    -0.006161    0.221717    1.209520   -0.058898   -0.001467    0.000062
C     0.009138    0.951502    0.006396   -0.165448   -0.003635    0.000031
C    -0.051402    0.241023   -1.202672    0.094132    0.002056   -0.000027
C    -0.026495   -1.153193   -1.202409    0.115228    0.002526   -0.000130
H     0.453207   -2.945678    0.003257   -1.383146   -0.031076    0.000117
H     0.256821   -1.699586    2.166347   -0.808787   -0.018634   -0.000094
H     0.131186    0.810803   -2.136257   -0.572867   -0.012805    0.000135
H     0.312786   -1.679803   -2.154130   -1.002881   -0.022680    0.000320
O    -0.078957    2.309104   -0.032555    0.031952    0.000909   -0.000099
H    -0.099129    2.645739    0.888820    0.082427    0.001810   -0.000104
Cl   -0.046433    1.115911    2.713691    0.005464    0.000122    0.000007
13
* Frequency(17)  728.7373
C    -0.009147   -1.865244    0.001903    0.151409    0.003547   -0.000035
C    -0.016589   -1.172743    1.214729    0.114167    0.002398    0.000178
C    -0.010757    0.221603    1.209525   -0.058898   -0.001467    0.000062
C    -0.003773    0.951219    0.006399   -0.165448   -0.003635    0.000031
C    -0.044056    0.241183   -1.202674    0.094132    0.002056   -0.000027
C    -0.017503   -1.152996   -1.202419    0.115228    0.002526   -0.000130
H     0.345275   -2.948103    0.003266   -1.383146   -0.031076    0.000117
H     0.193708   -1.701040    2.166339   -0.808787   -0.018634   -0.000094
H     0.086483    0.809804   -2.136247   -0.572867   -0.012805    0.000135
H     0.234527   -1.681572   -2.154105   -1.002881   -0.022680    0.000320
O    -0.076463    2.309175   -0.032563    0.031952    0.000909   -0.000099
H    -0.092697    2.645881    0.888812    0.082427    0.001810   -0.000104
Cl   -0.046007    1.115921    2.713691    0.005464    0.000122    0.000007
13
* Frequency(17)  728.7373
C     0.006195   -1.864884    0.001899    0.151409    0.003547   -0.000035
C    -0.005021   -1.172500    1.214747    0.114167    0.002398    0.000178
C    -0.016725    0.221454    1.209531   -0.058898   -0.001467    0.000062
C    -0.020538    0.950850    0.006402   -0.165448   -0.003635    0.000031
C    -0.034518    0.241392   -1.202677    0.094132    0.002056   -0.000027
C    -0.005827   -1.152740   -1.202432    0.115228    0.002526   -0.000130
H     0.205122   -2.951252    0.003278   -1.383146   -0.031076    0.000117
H     0.111754   -1.702928    2.166330   -0.808787   -0.018634   -0.000094
H     0.028435    0.808506   -2.136233   -0.572867   -0.012805    0.000135
H     0.132906   -1.683870   -2.154073   -1.002881   -0.022680    0.000320
O    -0.073226    2.309267   -0.032573    0.031952    0.000909   -0.000099
H    -0.084344    2.646064    0.888801    0.082427    0.001810   -0.000104
Cl   -0.045453    1.115933    2.713692    0.005464    0.000122    0.000007
13
* Frequency(17)  728.7373
C     0.023402   -1.864481    0.001895    0.151409    0.003547   -0.000035
C     0.007954   -1.172228    1.214767    0.114167    0.002398    0.000178
C    -0.023419    0.221287    1.209538   -0.058898   -0.001467    0.000062
C    -0.039340    0.950437    0.006405   -0.165448   -0.003635    0.000031
C    -0.023820    0.241625   -1.202680    0.094132    0.002056   -0.000027
C     0.007268   -1.152453   -1.202447    0.115228    0.002526   -0.000130
H     0.047934   -2.954784    0.003291   -1.383146   -0.031076    0.000117
H     0.019839   -1.705046    2.166319   -0.808787   -0.018634   -0.000094
H    -0.036669    0.807051   -2.136218   -0.572867   -0.012805    0.000135
H     0.018934   -1.686448   -2.154037   -1.002881   -0.022680    0.000320
O    -0.069595    2.309371   -0.032584    0.031952    0.000909   -0.000099
H    -0.074977    2.646270    0.888789    0.082427    0.001810   -0.000104
Cl   -0.044832    1.115947    2.713693    0.005464    0.000122    0.000007
