13
* (null), Energy   -1000.0000000
C     0.023402   -1.864481    0.001895   -0.001799    0.060424    0.020991
C     0.007954   -1.172228    1.214767   -0.007149    0.332512   -0.119465
C    -0.023419    0.221287    1.209538   -0.004721    0.240488   -0.229712
C    -0.039340    0.950437    0.006405    0.001103   -0.054913   -0.424211
C    -0.023820    0.241625   -1.202680    0.005438   -0.251585   -0.488776
C     0.007268   -1.152453   -1.202447    0.007567   -0.333341   -0.207457
H     0.047934   -2.954784    0.003291   -0.002912    0.060787    0.406087
H     0.019839   -1.705046    2.166319   -0.009427    0.435413   -0.065971
H    -0.036669    0.807051   -2.136218    0.008012   -0.460141   -0.620660
H     0.018934   -1.686448   -2.154037    0.012587   -0.625320   -0.047686
O    -0.069595    2.309371   -0.032584    0.003735   -0.050863    0.476157
H    -0.074977    2.646270    0.888789   -0.022022   -0.904448    0.804134
Cl   -0.044832    1.115947    2.713693   -0.001443    0.067595    0.262369
13
* Frequency(12)  483.0190
C     0.023197   -1.857614    0.004281   -0.001799    0.060424    0.020991
C     0.007141   -1.134439    1.201191   -0.007149    0.332512   -0.119465
C    -0.023955    0.248618    1.183433   -0.004721    0.240488   -0.229712
C    -0.039215    0.944197   -0.041804    0.001103   -0.054913   -0.424211
C    -0.023202    0.213034   -1.258226    0.005438   -0.251585   -0.488776
C     0.008128   -1.190335   -1.226024    0.007567   -0.333341   -0.207457
H     0.047603   -2.947876    0.049441   -0.002912    0.060787    0.406087
H     0.018768   -1.655563    2.158822   -0.009427    0.435413   -0.065971
H    -0.035758    0.754758   -2.206752    0.008012   -0.460141   -0.620660
H     0.020364   -1.757512   -2.159456    0.012587   -0.625320   -0.047686
O    -0.069170    2.303590    0.021529    0.003735   -0.050863    0.476157
H    -0.077480    2.543484    0.980175   -0.022022   -0.904448    0.804134
Cl   -0.044996    1.123629    2.743510   -0.001443    0.067595    0.262369
13
* Frequency(12)  483.0190
C     0.023015   -1.851492    0.006408   -0.001799    0.060424    0.020991
C     0.006417   -1.100746    1.189086   -0.007149    0.332512   -0.119465
C    -0.024434    0.272986    1.160156   -0.004721    0.240488   -0.229712
C    -0.039103    0.938632   -0.084789    0.001103   -0.054913   -0.424211
C    -0.022651    0.187541   -1.307754    0.005438   -0.251585   -0.488776
C     0.008895   -1.224113   -1.247045    0.007567   -0.333341   -0.207457
H     0.047308   -2.941716    0.090590   -0.002912    0.060787    0.406087
H     0.017813   -1.611443    2.152137   -0.009427    0.435413   -0.065971
H    -0.034946    0.708132   -2.269644    0.008012   -0.460141   -0.620660
H     0.021639   -1.820876   -2.164288    0.012587   -0.625320   -0.047686
O    -0.068792    2.298437    0.069778    0.003735   -0.050863    0.476157
H    -0.079711    2.451837    1.061658   -0.022022   -0.904448    0.804134
Cl   -0.045142    1.130478    2.770096   -0.001443    0.067595    0.262369
13
* Frequency(12)  483.0190
C     0.022875   -1.846776    0.008046   -0.001799    0.060424    0.020991
C     0.005859   -1.074799    1.179763   -0.007149    0.332512   -0.119465
C    -0.024802    0.291752    1.142231   -0.004721    0.240488   -0.229712
C    -0.039017    0.934347   -0.117892    0.001103   -0.054913   -0.424211
C    -0.022227    0.167909   -1.345895    0.005438   -0.251585   -0.488776
C     0.009485   -1.250125   -1.263234    0.007567   -0.333341   -0.207457
H     0.047081   -2.936973    0.122278   -0.002912    0.060787    0.406087
H     0.017077   -1.577466    2.146989   -0.009427    0.435413   -0.065971
H    -0.034321    0.672226   -2.318076    0.008012   -0.460141   -0.620660
H     0.022622   -1.869672   -2.168009    0.012587   -0.625320   -0.047686
O    -0.068500    2.294468    0.106934    0.003735   -0.050863    0.476157
H    -0.081430    2.381259    1.124407   -0.022022   -0.904448    0.804134
Cl   -0.045255    1.135753    2.790569   -0.001443    0.067595    0.262369
13
* Frequency(12)  483.0190
C     0.022791   -1.843980    0.009017   -0.001799    0.060424    0.020991
C     0.005528   -1.059410    1.174234   -0.007149    0.332512   -0.119465
C    -0.025021    0.302883    1.131599   -0.004721    0.240488   -0.229712
C    -0.038966    0.931806   -0.137525    0.001103   -0.054913   -0.424211
C    -0.021975    0.156265   -1.368516    0.005438   -0.251585   -0.488776
C     0.009836   -1.265552   -1.272835    0.007567   -0.333341   -0.207457
H     0.046946   -2.934159    0.141073   -0.002912    0.060787    0.406087
H     0.016641   -1.557314    2.143936   -0.009427    0.435413   -0.065971
H    -0.033950    0.650930   -2.346801    0.008012   -0.460141   -0.620660
H     0.023204   -1.898613   -2.170216    0.012587   -0.625320   -0.047686
O    -0.068327    2.292113    0.128971    0.003735   -0.050863    0.476157
H    -0.082449    2.339400    1.161624   -0.022022   -0.904448    0.804134
Cl   -0.045322    1.138881    2.802712   -0.001443    0.067595    0.262369
13
* Frequency(12)  483.0190
C     0.022774   -1.843405    0.009217   -0.001799    0.060424    0.020991
C     0.005460   -1.056246    1.173098   -0.007149    0.332512   -0.119465
C    -0.025065    0.305171    1.129414   -0.004721    0.240488   -0.229712
C    -0.038956    0.931283   -0.141561    0.001103   -0.054913   -0.424211
C    -0.021923    0.153872   -1.373167    0.005438   -0.251585   -0.488776
C     0.009908   -1.268724   -1.274809    0.007567   -0.333341   -0.207457
H     0.046918   -2.933581    0.144936   -0.002912    0.060787    0.406087
H     0.016551   -1.553172    2.143308   -0.009427    0.435413   -0.065971
H    -0.033874    0.646552   -2.352707    0.008012   -0.460141   -0.620660
H     0.023324   -1.904563   -2.170670    0.012587   -0.625320   -0.047686
O    -0.068292    2.291630    0.133502    0.003735   -0.050863    0.476157
H    -0.082658    2.330794    1.169275   -0.022022   -0.904448    0.804134
Cl   -0.045335    1.139524    2.805208   -0.001443    0.067595    0.262369
13
* Frequency(12)  483.0190
C     0.022825   -1.845114    0.008623   -0.001799    0.060424    0.020991
C     0.005662   -1.065651    1.176476   -0.007149    0.332512   -0.119465
C    -0.024932    0.298369    1.135911   -0.004721    0.240488   -0.229712
C    -0.038987    0.932837   -0.129563    0.001103   -0.054913   -0.424211
C    -0.022077    0.160987   -1.359342    0.005438   -0.251585   -0.488776
C     0.009694   -1.259296   -1.268941    0.007567   -0.333341   -0.207457
H     0.047001   -2.935300    0.133451   -0.002912    0.060787    0.406087
H     0.016818   -1.565487    2.145174   -0.009427    0.435413   -0.065971
H    -0.034101    0.659566   -2.335152    0.008012   -0.460141   -0.620660
H     0.022968   -1.886876   -2.169321    0.012587   -0.625320   -0.047686
O    -0.068397    2.293068    0.120034    0.003735   -0.050863    0.476157
H    -0.082036    2.356376    1.146531   -0.022022   -0.904448    0.804134
Cl   -0.045294    1.137613    2.797788   -0.001443    0.067595    0.262369
13
* Frequency(12)  483.0190
C     0.022939   -1.848922    0.007300   -0.001799    0.060424    0.020991
C     0.006113   -1.086605    1.184005   -0.007149    0.332512   -0.119465
C    -0.024634    0.283214    1.150387   -0.004721    0.240488   -0.229712
C    -0.039056    0.936297   -0.102830    0.001103   -0.054913   -0.424211
C    -0.022420    0.176842   -1.328541    0.005438   -0.251585   -0.488776
C     0.009217   -1.238289   -1.255868    0.007567   -0.333341   -0.207457
H     0.047184   -2.939131    0.107860   -0.002912    0.060787    0.406087
H     0.017412   -1.592925    2.149331   -0.009427    0.435413   -0.065971
H    -0.034606    0.688563   -2.296040    0.008012   -0.460141   -0.620660
H     0.022175   -1.847470   -2.166316    0.012587   -0.625320   -0.047686
O    -0.068633    2.296273    0.090028    0.003735   -0.050863    0.476157
H    -0.080648    2.413371    1.095856   -0.022022   -0.904448    0.804134
Cl   -0.045204    1.133353    2.781254   -0.001443    0.067595    0.262369
13
* Frequency(12)  483.0190
C     0.023102   -1.854416    0.005392   -0.001799    0.060424    0.020991
C     0.006763   -1.116837    1.194867   -0.007149    0.332512   -0.119465
C    -0.024205    0.261348    1.171273   -0.004721    0.240488   -0.229712
C    -0.039156    0.941290   -0.064260    0.001103   -0.054913   -0.424211
C    -0.022914    0.199716   -1.284101    0.005438   -0.251585   -0.488776
C     0.008529   -1.207981   -1.237006    0.007567   -0.333341   -0.207457
H     0.047449   -2.944658    0.070938   -0.002912    0.060787    0.406087
H     0.018269   -1.632514    2.155330   -0.009427    0.435413   -0.065971
H    -0.035334    0.730400   -2.239608    0.008012   -0.460141   -0.620660
H     0.021030   -1.790615   -2.161980    0.012587   -0.625320   -0.047686
O    -0.068972    2.300898    0.046735    0.003735   -0.050863    0.476157
H    -0.078646    2.495605    1.022743   -0.022022   -0.904448    0.804134
Cl   -0.045072    1.127207    2.757399   -0.001443    0.067595    0.262369
13
* Frequency(12)  483.0190
C     0.023298   -1.861000    0.003104   -0.001799    0.060424    0.020991
C     0.007542   -1.153072    1.207885   -0.007149    0.332512   -0.119465
C    -0.023691    0.235142    1.196305   -0.004721    0.240488   -0.229712
C    -0.039277    0.947274   -0.018033    0.001103   -0.054913   -0.424211
C    -0.023507    0.227132   -1.230837    0.005438   -0.251585   -0.488776
C     0.007704   -1.171656   -1.214398    0.007567   -0.333341   -0.207457
H     0.047766   -2.951282    0.026685   -0.002912    0.060787    0.406087
H     0.019296   -1.679963    2.162519   -0.009427    0.435413   -0.065971
H    -0.036207    0.780543   -2.171973    0.008012   -0.460141   -0.620660
H     0.019659   -1.722471   -2.156784    0.012587   -0.625320   -0.047686
O    -0.069379    2.306441   -0.005153    0.003735   -0.050863    0.476157
H    -0.076246    2.594166    0.935114   -0.022022   -0.904448    0.804134
Cl   -0.044915    1.119841    2.728808   -0.001443    0.067595    0.262369
13
* Frequency(12)  483.0190
C     0.023505   -1.867962    0.000686   -0.001799    0.060424    0.020991
C     0.008366   -1.191383    1.221650   -0.007149    0.332512   -0.119465
C    -0.023147    0.207433    1.222772   -0.004721    0.240488   -0.229712
C    -0.039404    0.953601    0.030843    0.001103   -0.054913   -0.424211
C    -0.024133    0.256119   -1.174522    0.005438   -0.251585   -0.488776
C     0.006832   -1.133250   -1.190496    0.007567   -0.333341   -0.207457
H     0.048102   -2.958285   -0.020102   -0.002912    0.060787    0.406087
H     0.020382   -1.730129    2.170119   -0.009427    0.435413   -0.065971
H    -0.037130    0.833559   -2.100463    0.008012   -0.460141   -0.620660
H     0.018208   -1.650424   -2.151289    0.012587   -0.625320   -0.047686
O    -0.069810    2.312301   -0.060014    0.003735   -0.050863    0.476157
H    -0.073708    2.698373    0.842465   -0.022022   -0.904448    0.804134
Cl   -0.044749    1.112053    2.698578   -0.001443    0.067595    0.262369
13
* Frequency(12)  483.0190
C     0.023701   -1.874547   -0.001601   -0.001799    0.060424    0.020991
C     0.009145   -1.227618    1.234668   -0.007149    0.332512   -0.119465
C    -0.022632    0.181227    1.247804   -0.004721    0.240488   -0.229712
C    -0.039524    0.959585    0.077071    0.001103   -0.054913   -0.424211
C    -0.024726    0.283535   -1.121258    0.005438   -0.251585   -0.488776
C     0.006008   -1.096924   -1.167889    0.007567   -0.333341   -0.207457
H     0.048419   -2.964910   -0.064355   -0.002912    0.060787    0.406087
H     0.021410   -1.777578    2.177309   -0.009427    0.435413   -0.065971
H    -0.038003    0.883702   -2.032827    0.008012   -0.460141   -0.620660
H     0.016837   -1.582281   -2.146093    0.012587   -0.625320   -0.047686
O    -0.070217    2.317844   -0.111903    0.003735   -0.050863    0.476157
H    -0.071308    2.796934    0.754835   -0.022022   -0.904448    0.804134
Cl   -0.044592    1.104687    2.669987   -0.001443    0.067595    0.262369
13
* Frequency(12)  483.0190
C     0.023865   -1.880041   -0.003510   -0.001799    0.060424    0.020991
C     0.009795   -1.257851    1.245530   -0.007149    0.332512   -0.119465
C    -0.022203    0.159361    1.268690   -0.004721    0.240488   -0.229712
C    -0.039624    0.964578    0.115641    0.001103   -0.054913   -0.424211
C    -0.025220    0.306409   -1.076818    0.005438   -0.251585   -0.488776
C     0.005320   -1.066616   -1.149026    0.007567   -0.333341   -0.207457
H     0.048684   -2.970436   -0.101277   -0.002912    0.060787    0.406087
H     0.022267   -1.817166    2.183307   -0.009427    0.435413   -0.065971
H    -0.038732    0.925539   -1.976395    0.008012   -0.460141   -0.620660
H     0.015692   -1.525426   -2.141757    0.012587   -0.625320   -0.047686
O    -0.070556    2.322468   -0.155196    0.003735   -0.050863    0.476157
H    -0.069306    2.879168    0.681722   -0.022022   -0.904448    0.804134
Cl   -0.044460    1.098541    2.646132   -0.001443    0.067595    0.262369
13
* Frequency(12)  483.0190
C     0.023978   -1.883848   -0.004833   -0.001799    0.060424    0.020991
C     0.010245   -1.278804    1.253058   -0.007149    0.332512   -0.119465
C    -0.021905    0.144206    1.283166   -0.004721    0.240488   -0.229712
C    -0.039694    0.968038    0.142374    0.001103   -0.054913   -0.424211
C    -0.025563    0.322264   -1.046017    0.005438   -0.251585   -0.488776
C     0.004843   -1.045610   -1.135953    0.007567   -0.333341   -0.207457
H     0.048868   -2.974267   -0.126868   -0.002912    0.060787    0.406087
H     0.022861   -1.844605    2.187464   -0.009427    0.435413   -0.065971
H    -0.039237    0.954536   -1.937283    0.008012   -0.460141   -0.620660
H     0.014899   -1.486020   -2.138752    0.012587   -0.625320   -0.047686
O    -0.070792    2.325673   -0.185202    0.003735   -0.050863    0.476157
H    -0.067918    2.936164    0.631048   -0.022022   -0.904448    0.804134
Cl   -0.044370    1.094281    2.629598   -0.001443    0.067595    0.262369
13
* Frequency(12)  483.0190
C     0.024029   -1.885557   -0.005426   -0.001799    0.060424    0.020991
C     0.010447   -1.288209    1.256437   -0.007149    0.332512   -0.119465
C    -0.021772    0.137404    1.289663   -0.004721    0.240488   -0.229712
C    -0.039725    0.969591    0.154372    0.001103   -0.054913   -0.424211
C    -0.025717    0.329379   -1.032192    0.005438   -0.251585   -0.488776
C     0.004629   -1.036182   -1.130085    0.007567   -0.333341   -0.207457
H     0.048950   -2.975986   -0.138353   -0.002912    0.060787    0.406087
H     0.023128   -1.856920    2.189330   -0.009427    0.435413   -0.065971
H    -0.039463    0.967550   -1.919728    0.008012   -0.460141   -0.620660
H     0.014543   -1.468333   -2.137403    0.012587   -0.625320   -0.047686
O    -0.070897    2.327112   -0.198670    0.003735   -0.050863    0.476157
H    -0.067295    2.961745    0.608304   -0.022022   -0.904448    0.804134
Cl   -0.044329    1.092369    2.622178   -0.001443    0.067595    0.262369
13
* Frequency(12)  483.0190
C     0.024012   -1.884983   -0.005227   -0.001799    0.060424    0.020991
C     0.010379   -1.285046    1.255301   -0.007149    0.332512   -0.119465
C    -0.021817    0.139692    1.287477   -0.004721    0.240488   -0.229712
C    -0.039714    0.969069    0.150336    0.001103   -0.054913   -0.424211
C    -0.025665    0.326986   -1.036843    0.005438   -0.251585   -0.488776
C     0.004701   -1.039353   -1.132059    0.007567   -0.333341   -0.207457
H     0.048922   -2.975408   -0.134490   -0.002912    0.060787    0.406087
H     0.023038   -1.852777    2.188702   -0.009427    0.435413   -0.065971
H    -0.039387    0.963172   -1.925634    0.008012   -0.460141   -0.620660
H     0.014663   -1.474283   -2.137857    0.012587   -0.625320   -0.047686
O    -0.070862    2.326628   -0.194139    0.003735   -0.050863    0.476157
H    -0.067505    2.953140    0.615955   -0.022022   -0.904448    0.804134
Cl   -0.044342    1.093012    2.624674   -0.001443    0.067595    0.262369
13
* Frequency(12)  483.0190
C     0.023929   -1.882186   -0.004255   -0.001799    0.060424    0.020991
C     0.010049   -1.269656    1.249772   -0.007149    0.332512   -0.119465
C    -0.022035    0.150823    1.276846   -0.004721    0.240488   -0.229712
C    -0.039663    0.966527    0.130703    0.001103   -0.054913   -0.424211
C    -0.025414    0.315342   -1.059464    0.005438   -0.251585   -0.488776
C     0.005051   -1.054781   -1.141660    0.007567   -0.333341   -0.207457
H     0.048787   -2.972595   -0.115695   -0.002912    0.060787    0.406087
H     0.022602   -1.832626    2.185649   -0.009427    0.435413   -0.065971
H    -0.039016    0.941876   -1.954359    0.008012   -0.460141   -0.620660
H     0.015246   -1.503224   -2.140064    0.012587   -0.625320   -0.047686
O    -0.070689    2.324274   -0.172102    0.003735   -0.050863    0.476157
H    -0.068524    2.911280    0.653171   -0.022022   -0.904448    0.804134
Cl   -0.044409    1.096141    2.636817   -0.001443    0.067595    0.262369
13
* Frequency(12)  483.0190
C     0.023788   -1.877471   -0.002617   -0.001799    0.060424    0.020991
C     0.009491   -1.243709    1.240449   -0.007149    0.332512   -0.119465
C    -0.022404    0.169589    1.258920   -0.004721    0.240488   -0.229712
C    -0.039577    0.962242    0.097600    0.001103   -0.054913   -0.424211
C    -0.024989    0.295710   -1.097605    0.005438   -0.251585   -0.488776
C     0.005642   -1.080793   -1.157849    0.007567   -0.333341   -0.207457
H     0.048560   -2.967851   -0.084007   -0.002912    0.060787    0.406087
H     0.021866   -1.798649    2.180501   -0.009427    0.435413   -0.065971
H    -0.038391    0.905969   -2.002791    0.008012   -0.460141   -0.620660
H     0.016228   -1.552020   -2.143785    0.012587   -0.625320   -0.047686
O    -0.070398    2.320305   -0.134945    0.003735   -0.050863    0.476157
H    -0.070243    2.840703    0.715921   -0.022022   -0.904448    0.804134
Cl   -0.044522    1.101416    2.657290   -0.001443    0.067595    0.262369
13
* Frequency(12)  483.0190
C     0.023606   -1.871348   -0.000490   -0.001799    0.060424    0.020991
C     0.008766   -1.210016    1.228344   -0.007149    0.332512   -0.119465
C    -0.022882    0.193957    1.235644   -0.004721    0.240488   -0.229712
C    -0.039465    0.956678    0.054615    0.001103   -0.054913   -0.424211
C    -0.024438    0.270217   -1.147133    0.005438   -0.251585   -0.488776
C     0.006408   -1.114570   -1.178871    0.007567   -0.333341   -0.207457
H     0.048265   -2.961692   -0.042858   -0.002912    0.060787    0.406087
H     0.020911   -1.754528    2.173816   -0.009427    0.435413   -0.065971
H    -0.037579    0.859344   -2.065683    0.008012   -0.460141   -0.620660
H     0.017503   -1.615384   -2.148617    0.012587   -0.625320   -0.047686
O    -0.070019    2.315151   -0.086697    0.003735   -0.050863    0.476157
H    -0.072474    2.749056    0.797404   -0.022022   -0.904448    0.804134
Cl   -0.044668    1.108265    2.683876   -0.001443    0.067595    0.262369
13
* Frequency(12)  483.0190
C     0.023402   -1.864481    0.001895   -0.001799    0.060424    0.020991
C     0.007954   -1.172228    1.214767   -0.007149    0.332512   -0.119465
C    -0.023419    0.221287    1.209538   -0.004721    0.240488   -0.229712
C    -0.039340    0.950437    0.006405    0.001103   -0.054913   -0.424211
C    -0.023820    0.241625   -1.202680    0.005438   -0.251585   -0.488776
C     0.007268   -1.152453   -1.202447    0.007567   -0.333341   -0.207457
H     0.047934   -2.954784    0.003291   -0.002912    0.060787    0.406087
H     0.019839   -1.705046    2.166319   -0.009427    0.435413   -0.065971
H    -0.036669    0.807051   -2.136218    0.008012   -0.460141   -0.620660
H     0.018934   -1.686448   -2.154037    0.012587   -0.625320   -0.047686
O    -0.069595    2.309371   -0.032584    0.003735   -0.050863    0.476157
H    -0.074977    2.646270    0.888789   -0.022022   -0.904448    0.804134
Cl   -0.044832    1.115947    2.713693   -0.001443    0.067595    0.262369
