13
Coordinates from ORCA-job ex1_optfreq_PBE_water
  C   0.02340166969403     -1.86448119906303      0.00189522644637
  C   0.00795372491442     -1.17222759718815      1.21476743483677
  C   -0.02341865898175      0.22128747642464      1.20953830210712
  C   -0.03934013348143      0.95043730222944      0.00640534120669
  C   -0.02382021537481      0.24162546034473     -1.20267958649134
  C   0.00726824949233     -1.15245282609367     -1.20244715494978
  H   0.04793419254654     -2.95478364048391      0.00329140946524
  H   0.01983936129173     -1.70504587816245      2.16631903703575
  H   -0.03666869888376      0.80705092948542     -2.13621757116644
  H   0.01893358851654     -1.68644793788650     -2.15403653165127
  O   -0.06959454906201      2.30937077035792     -0.03258391015553
  H   -0.07497698209413      2.64626976281977      0.88878930442735
  Cl  -0.04483202857771      1.11594687721578      2.71369294888907
