13
Coordinates from ORCA-job ex1_optfreq_B3LYP_gas
  C   0.02293521534458     -1.85717026949429      0.00168896643483
  C   0.00758750570728     -1.16847216493309      1.20759767150109
  C   -0.02331643140269      0.21833905276797      1.20360909972499
  C   -0.03910359477265      0.94179583576515      0.00785359320591
  C   -0.02361119246114      0.23845030352954     -1.19576125139896
  C   0.00718309711405     -1.14803784354795     -1.19631764316890
  H   0.04721593815736     -2.93872878938304      0.00128320624151
  H   0.01949430950627     -1.69678037580138      2.15135938941067
  H   -0.03619968359574      0.80327376577447     -2.11879628175843
  H   0.01906808375127     -1.67844710357318     -2.13996205056680
  O   -0.06865223803001      2.29551801161837     -0.03266891180078
  H   -0.07674745443555      2.63751702090345      0.87315203444016
  Cl  -0.04317403488303      1.10929205637397      2.71369642773473
