13
* (null), Energy   -1000.0000000
C     0.023174   -1.859096    0.001418   -0.001297    0.048340    0.029154
C     0.007862   -1.170475    1.208541   -0.007225    0.325343   -0.114688
C    -0.023322    0.217455    1.205999   -0.004392    0.231436   -0.245633
C    -0.038982    0.941937    0.010334    0.001133   -0.042175   -0.427522
C    -0.023681    0.238678   -1.194493    0.005109   -0.245359   -0.487585
C     0.007147   -1.149030   -1.197145    0.007592   -0.333121   -0.191874
H     0.047548   -2.940946    0.001231   -0.002059    0.048323    0.403403
H     0.019833   -1.701388    2.151264   -0.010411    0.445222   -0.051904
H    -0.036486    0.800637   -2.120042    0.008587   -0.465593   -0.627497
H     0.018706   -1.678013   -2.141802    0.013230   -0.623202   -0.033730
O    -0.068755    2.297547   -0.034853    0.002109   -0.036628    0.482938
H    -0.076120    2.658210    0.865394   -0.002164   -0.879980    0.830247
Cl   -0.044245    1.101035    2.720887   -0.001467    0.063736    0.254488
13
* Frequency(12)  494.7807
C     0.023027   -1.853603    0.004731   -0.001297    0.048340    0.029154
C     0.007041   -1.133502    1.195508   -0.007225    0.325343   -0.114688
C    -0.023821    0.243756    1.178084   -0.004392    0.231436   -0.245633
C    -0.038853    0.937144   -0.038252    0.001133   -0.042175   -0.427522
C    -0.023101    0.210794   -1.249904    0.005109   -0.245359   -0.487585
C     0.008010   -1.186887   -1.218951    0.007592   -0.333121   -0.191874
H     0.047314   -2.935455    0.047076   -0.002059    0.048323    0.403403
H     0.018650   -1.650791    2.145366   -0.010411    0.445222   -0.051904
H    -0.035510    0.747725   -2.191353    0.008587   -0.465593   -0.627497
H     0.020210   -1.748837   -2.145635    0.013230   -0.623202   -0.033730
O    -0.068515    2.293384    0.020030    0.002109   -0.036628    0.482938
H    -0.076366    2.558205    0.959747   -0.002164   -0.879980    0.830247
Cl   -0.044412    1.108278    2.749809   -0.001467    0.063736    0.254488
13
* Frequency(12)  494.7807
C     0.022895   -1.848704    0.007685   -0.001297    0.048340    0.029154
C     0.006309   -1.100535    1.183886   -0.007225    0.325343   -0.114688
C    -0.024266    0.267208    1.153194   -0.004392    0.231436   -0.245633
C    -0.038738    0.932871   -0.081572    0.001133   -0.042175   -0.427522
C    -0.022583    0.185932   -1.299311    0.005109   -0.245359   -0.487585
C     0.008779   -1.220642   -1.238393    0.007592   -0.333121   -0.191874
H     0.047106   -2.930558    0.087953   -0.002059    0.048323    0.403403
H     0.017595   -1.605677    2.140106   -0.010411    0.445222   -0.051904
H    -0.034640    0.700547   -2.254937    0.008587   -0.465593   -0.627497
H     0.021550   -1.811986   -2.149053    0.013230   -0.623202   -0.033730
O    -0.068301    2.289673    0.068966    0.002109   -0.036628    0.482938
H    -0.076585    2.469037    1.043876   -0.002164   -0.879980    0.830247
Cl   -0.044561    1.114736    2.775596   -0.001467    0.063736    0.254488
13
* Frequency(12)  494.7807
C     0.022794   -1.844932    0.009960   -0.001297    0.048340    0.029154
C     0.005745   -1.075147    1.174937   -0.007225    0.325343   -0.114688
C    -0.024609    0.285268    1.134027   -0.004392    0.231436   -0.245633
C    -0.038650    0.929580   -0.114933    0.001133   -0.042175   -0.427522
C    -0.022185    0.166786   -1.337359    0.005109   -0.245359   -0.487585
C     0.009371   -1.246637   -1.253366    0.007592   -0.333121   -0.191874
H     0.046945   -2.926787    0.119432   -0.002059    0.048323    0.403403
H     0.016783   -1.570935    2.136056   -0.010411    0.445222   -0.051904
H    -0.033970    0.664215   -2.303903    0.008587   -0.465593   -0.627497
H     0.022583   -1.860617   -2.151685    0.013230   -0.623202   -0.033730
O    -0.068137    2.286814    0.106652    0.002109   -0.036628    0.482938
H    -0.076754    2.400368    1.108663   -0.002164   -0.879980    0.830247
Cl   -0.044675    1.119710    2.795455   -0.001467    0.063736    0.254488
13
* Frequency(12)  494.7807
C     0.022734   -1.842695    0.011309   -0.001297    0.048340    0.029154
C     0.005411   -1.060090    1.169629   -0.007225    0.325343   -0.114688
C    -0.024812    0.295979    1.122658   -0.004392    0.231436   -0.245633
C    -0.038597    0.927628   -0.134720    0.001133   -0.042175   -0.427522
C    -0.021948    0.155430   -1.359925    0.005109   -0.245359   -0.487585
C     0.009723   -1.262054   -1.262246    0.007592   -0.333121   -0.191874
H     0.046850   -2.924551    0.138102   -0.002059    0.048323    0.403403
H     0.016301   -1.550329    2.133654   -0.010411    0.445222   -0.051904
H    -0.033573    0.642666   -2.332945    0.008587   -0.465593   -0.627497
H     0.023195   -1.889459   -2.153246    0.013230   -0.623202   -0.033730
O    -0.068039    2.285119    0.129003    0.002109   -0.036628    0.482938
H    -0.076854    2.359641    1.147089   -0.002164   -0.879980    0.830247
Cl   -0.044743    1.122660    2.807233   -0.001467    0.063736    0.254488
13
* Frequency(12)  494.7807
C     0.022722   -1.842235    0.011586   -0.001297    0.048340    0.029154
C     0.005342   -1.056994    1.168538   -0.007225    0.325343   -0.114688
C    -0.024854    0.298181    1.120321   -0.004392    0.231436   -0.245633
C    -0.038586    0.927226   -0.138788    0.001133   -0.042175   -0.427522
C    -0.021899    0.153095   -1.364565    0.005109   -0.245359   -0.487585
C     0.009795   -1.265224   -1.264072    0.007592   -0.333121   -0.191874
H     0.046830   -2.924091    0.141940   -0.002059    0.048323    0.403403
H     0.016202   -1.546093    2.133160   -0.010411    0.445222   -0.051904
H    -0.033491    0.638237   -2.338915    0.008587   -0.465593   -0.627497
H     0.023321   -1.895389   -2.153567    0.013230   -0.623202   -0.033730
O    -0.068019    2.284771    0.133598    0.002109   -0.036628    0.482938
H    -0.076875    2.351269    1.154988   -0.002164   -0.879980    0.830247
Cl   -0.044757    1.123266    2.809654   -0.001467    0.063736    0.254488
13
* Frequency(12)  494.7807
C     0.022758   -1.843602    0.010762   -0.001297    0.048340    0.029154
C     0.005546   -1.066196    1.171781   -0.007225    0.325343   -0.114688
C    -0.024729    0.291635    1.127269   -0.004392    0.231436   -0.245633
C    -0.038618    0.928419   -0.126696    0.001133   -0.042175   -0.427522
C    -0.022044    0.160035   -1.350774    0.005109   -0.245359   -0.487585
C     0.009580   -1.255802   -1.258645    0.007592   -0.333121   -0.191874
H     0.046888   -2.925458    0.130530   -0.002059    0.048323    0.403403
H     0.016496   -1.558685    2.134628   -0.010411    0.445222   -0.051904
H    -0.033734    0.651405   -2.321167    0.008587   -0.465593   -0.627497
H     0.022947   -1.877762   -2.152613    0.013230   -0.623202   -0.033730
O    -0.068079    2.285807    0.119939    0.002109   -0.036628    0.482938
H    -0.076813    2.376158    1.131506   -0.002164   -0.879980    0.830247
Cl   -0.044715    1.121464    2.802456   -0.001467    0.063736    0.254488
13
* Frequency(12)  494.7807
C     0.022840   -1.846649    0.008925   -0.001297    0.048340    0.029154
C     0.006002   -1.086698    1.179009   -0.007225    0.325343   -0.114688
C    -0.024453    0.277051    1.142748   -0.004392    0.231436   -0.245633
C    -0.038690    0.931077   -0.099754    0.001133   -0.042175   -0.427522
C    -0.022366    0.175497   -1.320048    0.005109   -0.245359   -0.487585
C     0.009102   -1.234809   -1.246553    0.007592   -0.333121   -0.191874
H     0.047018   -2.928503    0.105109   -0.002059    0.048323    0.403403
H     0.017152   -1.586742    2.137899   -0.010411    0.445222   -0.051904
H    -0.034275    0.680746   -2.281624    0.008587   -0.465593   -0.627497
H     0.022113   -1.838490   -2.150488    0.013230   -0.623202   -0.033730
O    -0.068212    2.288115    0.089505    0.002109   -0.036628    0.482938
H    -0.076677    2.431612    1.079186   -0.002164   -0.879980    0.830247
Cl   -0.044623    1.117447    2.786419   -0.001467    0.063736    0.254488
13
* Frequency(12)  494.7807
C     0.022958   -1.851044    0.006274   -0.001297    0.048340    0.029154
C     0.006659   -1.116279    1.189436   -0.007225    0.325343   -0.114688
C    -0.024053    0.256008    1.165081   -0.004392    0.231436   -0.245633
C    -0.038793    0.934912   -0.060883    0.001133   -0.042175   -0.427522
C    -0.022830    0.197805   -1.275716    0.005109   -0.245359   -0.487585
C     0.008411   -1.204521   -1.229108    0.007592   -0.333121   -0.191874
H     0.047205   -2.932897    0.068431   -0.002059    0.048323    0.403403
H     0.018099   -1.627222    2.142618   -0.010411    0.445222   -0.051904
H    -0.035056    0.723078   -2.224571    0.008587   -0.465593   -0.627497
H     0.020910   -1.781827   -2.147421    0.013230   -0.623202   -0.033730
O    -0.068404    2.291445    0.045596    0.002109   -0.036628    0.482938
H    -0.076480    2.511621    1.003698   -0.002164   -0.879980    0.830247
Cl   -0.044490    1.111652    2.763280   -0.001467    0.063736    0.254488
13
* Frequency(12)  494.7807
C     0.023099   -1.856312    0.003097   -0.001297    0.048340    0.029154
C     0.007446   -1.151733    1.201934   -0.007225    0.325343   -0.114688
C    -0.023575    0.230788    1.191849   -0.004392    0.231436   -0.245633
C    -0.038916    0.939507   -0.014295    0.001133   -0.042175   -0.427522
C    -0.023387    0.224543   -1.222582    0.005109   -0.245359   -0.487585
C     0.007584   -1.168220   -1.208199    0.007592   -0.333121   -0.191874
H     0.047430   -2.938162    0.024471   -0.002059    0.048323    0.403403
H     0.019233   -1.675740    2.148274   -0.010411    0.445222   -0.051904
H    -0.035991    0.773816   -2.156190    0.008587   -0.465593   -0.627497
H     0.019468   -1.713915   -2.143745    0.013230   -0.623202   -0.033730
O    -0.068633    2.295437   -0.007032    0.002109   -0.036628    0.482938
H    -0.076245    2.607516    0.913223   -0.002164   -0.879980    0.830247
Cl   -0.044330    1.104707    2.735548   -0.001467    0.063736    0.254488
13
* Frequency(12)  494.7807
C     0.023249   -1.861881   -0.000262   -0.001297    0.048340    0.029154
C     0.008278   -1.189217    1.215148   -0.007225    0.325343   -0.114688
C    -0.023069    0.204122    1.220150   -0.004392    0.231436   -0.245633
C    -0.039047    0.944367    0.034963    0.001133   -0.042175   -0.427522
C    -0.023976    0.252812   -1.166404    0.005109   -0.245359   -0.487585
C     0.006709   -1.129839   -1.186092    0.007592   -0.333121   -0.191874
H     0.047667   -2.943730   -0.022008   -0.002059    0.048323    0.403403
H     0.020433   -1.727037    2.154254   -0.010411    0.445222   -0.051904
H    -0.036981    0.827459   -2.083893    0.008587   -0.465593   -0.627497
H     0.017944   -1.642112   -2.139859    0.013230   -0.623202   -0.033730
O    -0.068876    2.299657   -0.062674    0.002109   -0.036628    0.482938
H    -0.075995    2.708904    0.817565   -0.002164   -0.879980    0.830247
Cl   -0.044161    1.097363    2.706227   -0.001467    0.063736    0.254488
13
* Frequency(12)  494.7807
C     0.023390   -1.867149   -0.003439   -0.001297    0.048340    0.029154
C     0.009066   -1.224671    1.227646   -0.007225    0.325343   -0.114688
C    -0.022590    0.178902    1.246917   -0.004392    0.231436   -0.245633
C    -0.039170    0.948963    0.081551    0.001133   -0.042175   -0.427522
C    -0.024532    0.279550   -1.113270    0.005109   -0.245359   -0.487585
C     0.005882   -1.093538   -1.165182    0.007592   -0.333121   -0.191874
H     0.047891   -2.948996   -0.065968   -0.002059    0.048323    0.403403
H     0.021567   -1.775554    2.159911   -0.010411    0.445222   -0.051904
H    -0.037917    0.878197   -2.015512    0.008587   -0.465593   -0.627497
H     0.016502   -1.574199   -2.136183    0.013230   -0.623202   -0.033730
O    -0.069106    2.303648   -0.115302    0.002109   -0.036628    0.482938
H    -0.075759    2.804798    0.727090   -0.002164   -0.879980    0.830247
Cl   -0.044001    1.090418    2.678494   -0.001467    0.063736    0.254488
13
* Frequency(12)  494.7807
C     0.023508   -1.871544   -0.006090   -0.001297    0.048340    0.029154
C     0.009723   -1.254252    1.238074   -0.007225    0.325343   -0.114688
C    -0.022191    0.157859    1.269250   -0.004392    0.231436   -0.245633
C    -0.039273    0.952797    0.120422    0.001133   -0.042175   -0.427522
C    -0.024997    0.301858   -1.068938    0.005109   -0.245359   -0.487585
C     0.005192   -1.063250   -1.147737    0.007592   -0.333121   -0.191874
H     0.048078   -2.953390   -0.102646   -0.002059    0.048323    0.403403
H     0.022514   -1.816034    2.164630   -0.010411    0.445222   -0.051904
H    -0.038697    0.920529   -1.958459    0.008587   -0.465593   -0.627497
H     0.015299   -1.517537   -2.133117    0.013230   -0.623202   -0.033730
O    -0.069298    2.306979   -0.159211    0.002109   -0.036628    0.482938
H    -0.075563    2.884807    0.651603   -0.002164   -0.879980    0.830247
Cl   -0.043868    1.084623    2.655356   -0.001467    0.063736    0.254488
13
* Frequency(12)  494.7807
C     0.023590   -1.874590   -0.007927   -0.001297    0.048340    0.029154
C     0.010178   -1.274754    1.245301   -0.007225    0.325343   -0.114688
C    -0.021914    0.143275    1.284729   -0.004392    0.231436   -0.245633
C    -0.039345    0.955455    0.147363    0.001133   -0.042175   -0.427522
C    -0.025319    0.317320   -1.038212    0.005109   -0.245359   -0.487585
C     0.004713   -1.042257   -1.135645    0.007592   -0.333121   -0.191874
H     0.048208   -2.956435   -0.128068   -0.002059    0.048323    0.403403
H     0.023170   -1.844091    2.167901   -0.010411    0.445222   -0.051904
H    -0.039238    0.949869   -1.918916    0.008587   -0.465593   -0.627497
H     0.014466   -1.478264   -2.130991    0.013230   -0.623202   -0.033730
O    -0.069431    2.309287   -0.189645    0.002109   -0.036628    0.482938
H    -0.075426    2.940261    0.599283   -0.002164   -0.879980    0.830247
Cl   -0.043775    1.080606    2.639319   -0.001467    0.063736    0.254488
13
* Frequency(12)  494.7807
C     0.023627   -1.875958   -0.008751   -0.001297    0.048340    0.029154
C     0.010382   -1.283956    1.248545   -0.007225    0.325343   -0.114688
C    -0.021790    0.136729    1.291677   -0.004392    0.231436   -0.245633
C    -0.039377    0.956648    0.159455    0.001133   -0.042175   -0.427522
C    -0.025463    0.324260   -1.024421    0.005109   -0.245359   -0.487585
C     0.004499   -1.032835   -1.130218    0.007592   -0.333121   -0.191874
H     0.048266   -2.957801   -0.139478   -0.002059    0.048323    0.403403
H     0.023464   -1.856683    2.169369   -0.010411    0.445222   -0.051904
H    -0.039481    0.963038   -1.901168    0.008587   -0.465593   -0.627497
H     0.014091   -1.460638   -2.130037    0.013230   -0.623202   -0.033730
O    -0.069490    2.310323   -0.203304    0.002109   -0.036628    0.482938
H    -0.075365    2.965151    0.575800   -0.002164   -0.879980    0.830247
Cl   -0.043734    1.078803    2.632121   -0.001467    0.063736    0.254488
13
* Frequency(12)  494.7807
C     0.023614   -1.875498   -0.008474   -0.001297    0.048340    0.029154
C     0.010314   -1.280861    1.247454   -0.007225    0.325343   -0.114688
C    -0.021831    0.138931    1.289340   -0.004392    0.231436   -0.245633
C    -0.039366    0.956246    0.155388    0.001133   -0.042175   -0.427522
C    -0.025415    0.321925   -1.029060    0.005109   -0.245359   -0.487585
C     0.004571   -1.036005   -1.132044    0.007592   -0.333121   -0.191874
H     0.048247   -2.957342   -0.135639   -0.002059    0.048323    0.403403
H     0.023365   -1.852447    2.168875   -0.010411    0.445222   -0.051904
H    -0.039400    0.958608   -1.907138    0.008587   -0.465593   -0.627497
H     0.014217   -1.466567   -2.130358    0.013230   -0.623202   -0.033730
O    -0.069470    2.309974   -0.198709    0.002109   -0.036628    0.482938
H    -0.075386    2.956778    0.583700   -0.002164   -0.879980    0.830247
Cl   -0.043748    1.079410    2.634542   -0.001467    0.063736    0.254488
13
* Frequency(12)  494.7807
C     0.023554   -1.873260   -0.007125   -0.001297    0.048340    0.029154
C     0.009979   -1.265803    1.242146   -0.007225    0.325343   -0.114688
C    -0.022035    0.149642    1.277972   -0.004392    0.231436   -0.245633
C    -0.039313    0.954295    0.135601    0.001133   -0.042175   -0.427522
C    -0.025178    0.310570   -1.051627    0.005109   -0.245359   -0.487585
C     0.004922   -1.051422   -1.140924    0.007592   -0.333121   -0.191874
H     0.048151   -2.955105   -0.116969   -0.002059    0.048323    0.403403
H     0.022883   -1.831842    2.166473   -0.010411    0.445222   -0.051904
H    -0.039002    0.937060   -1.936180    0.008587   -0.465593   -0.627497
H     0.014830   -1.495410   -2.131919    0.013230   -0.623202   -0.033730
O    -0.069373    2.308279   -0.176358    0.002109   -0.036628    0.482938
H    -0.075486    2.916051    0.622125   -0.002164   -0.879980    0.830247
Cl   -0.043815    1.082360    2.646320   -0.001467    0.063736    0.254488
13
* Frequency(12)  494.7807
C     0.023453   -1.869488   -0.004850   -0.001297    0.048340    0.029154
C     0.009415   -1.240415    1.233196   -0.007225    0.325343   -0.114688
C    -0.022377    0.167702    1.258804   -0.004392    0.231436   -0.245633
C    -0.039225    0.951004    0.102240    0.001133   -0.042175   -0.427522
C    -0.024780    0.291424   -1.089675    0.005109   -0.245359   -0.487585
C     0.005515   -1.077417   -1.155897    0.007592   -0.333121   -0.191874
H     0.047991   -2.951334   -0.085490   -0.002059    0.048323    0.403403
H     0.022071   -1.797099    2.162422   -0.010411    0.445222   -0.051904
H    -0.038332    0.900728   -1.985146    0.008587   -0.465593   -0.627497
H     0.015862   -1.544041   -2.134551    0.013230   -0.623202   -0.033730
O    -0.069208    2.305421   -0.138673    0.002109   -0.036628    0.482938
H    -0.075655    2.847383    0.686912   -0.002164   -0.879980    0.830247
Cl   -0.043930    1.087333    2.666179   -0.001467    0.063736    0.254488
13
* Frequency(12)  494.7807
C     0.023322   -1.864590   -0.001896   -0.001297    0.048340    0.029154
C     0.008683   -1.207449    1.221575   -0.007225    0.325343   -0.114688
C    -0.022822    0.191153    1.233914   -0.004392    0.231436   -0.245633
C    -0.039110    0.946730    0.058919    0.001133   -0.042175   -0.427522
C    -0.024262    0.266561   -1.139081    0.005109   -0.245359   -0.487585
C     0.006284   -1.111172   -1.175339    0.007592   -0.333121   -0.191874
H     0.047782   -2.946438   -0.044613   -0.002059    0.048323    0.403403
H     0.021016   -1.751985    2.157163   -0.010411    0.445222   -0.051904
H    -0.037462    0.853550   -2.048730    0.008587   -0.465593   -0.627497
H     0.017203   -1.607190   -2.137969    0.013230   -0.623202   -0.033730
O    -0.068994    2.301709   -0.089737    0.002109   -0.036628    0.482938
H    -0.075874    2.758215    0.771041   -0.002164   -0.879980    0.830247
Cl   -0.044079    1.093792    2.691966   -0.001467    0.063736    0.254488
13
* Frequency(12)  494.7807
C     0.023174   -1.859096    0.001418   -0.001297    0.048340    0.029154
C     0.007862   -1.170475    1.208541   -0.007225    0.325343   -0.114688
C    -0.023322    0.217455    1.205999   -0.004392    0.231436   -0.245633
C    -0.038982    0.941937    0.010334    0.001133   -0.042175   -0.427522
C    -0.023681    0.238678   -1.194493    0.005109   -0.245359   -0.487585
C     0.007147   -1.149030   -1.197145    0.007592   -0.333121   -0.191874
H     0.047548   -2.940946    0.001231   -0.002059    0.048323    0.403403
H     0.019833   -1.701388    2.151264   -0.010411    0.445222   -0.051904
H    -0.036486    0.800637   -2.120042    0.008587   -0.465593   -0.627497
H     0.018706   -1.678013   -2.141802    0.013230   -0.623202   -0.033730
O    -0.068755    2.297547   -0.034853    0.002109   -0.036628    0.482938
H    -0.076120    2.658210    0.865394   -0.002164   -0.879980    0.830247
Cl   -0.044245    1.101035    2.720887   -0.001467    0.063736    0.254488
