13
* (null), Energy   -1000.0000000
C     0.023174   -1.859096    0.001418    0.150964    0.003548   -0.000038
C     0.007862   -1.170475    1.208541    0.110685    0.002372    0.000160
C    -0.023322    0.217455    1.205999   -0.056650   -0.001378    0.000089
C    -0.038982    0.941937    0.010334   -0.165313   -0.003623    0.000027
C    -0.023681    0.238678   -1.194493    0.097764    0.002109   -0.000047
C     0.007147   -1.149030   -1.197145    0.115361    0.002482   -0.000164
H     0.047548   -2.940946    0.001231   -1.367770   -0.030732    0.000188
H     0.019833   -1.701388    2.151264   -0.800080   -0.018390    0.000002
H    -0.036486    0.800637   -2.120042   -0.589277   -0.013131    0.000186
H     0.018706   -1.678013   -2.141802   -1.021962   -0.023078    0.000247
O    -0.068755    2.297547   -0.034853    0.031631    0.000860   -0.000044
H    -0.076120    2.658210    0.865394    0.076896    0.002002   -0.000110
Cl   -0.044245    1.101035    2.720887    0.005337    0.000114   -0.000004
13
* Frequency(17)  761.7183
C     0.040330   -1.858693    0.001413    0.150964    0.003548   -0.000038
C     0.020441   -1.170206    1.208559    0.110685    0.002372    0.000160
C    -0.029760    0.217298    1.206009   -0.056650   -0.001378    0.000089
C    -0.057769    0.941525    0.010337   -0.165313   -0.003623    0.000027
C    -0.012571    0.238917   -1.194498    0.097764    0.002109   -0.000047
C     0.020257   -1.148748   -1.197164    0.115361    0.002482   -0.000164
H    -0.107892   -2.944439    0.001253   -1.367770   -0.030732    0.000188
H    -0.071092   -1.703478    2.151265   -0.800080   -0.018390    0.000002
H    -0.103454    0.799145   -2.120020   -0.589277   -0.013131    0.000186
H    -0.097435   -1.680636   -2.141774   -1.021962   -0.023078    0.000247
O    -0.065160    2.297644   -0.034858    0.031631    0.000860   -0.000044
H    -0.067381    2.658437    0.865382    0.076896    0.002002   -0.000110
Cl   -0.043639    1.101048    2.720887    0.005337    0.000114   -0.000004
13
* Frequency(17)  761.7183
C     0.055627   -1.858334    0.001409    0.150964    0.003548   -0.000038
C     0.031657   -1.169965    1.208576    0.110685    0.002372    0.000160
C    -0.035500    0.217159    1.206018   -0.056650   -0.001378    0.000089
C    -0.074520    0.941158    0.010340   -0.165313   -0.003623    0.000027
C    -0.002665    0.239131   -1.194503    0.097764    0.002109   -0.000047
C     0.031947   -1.148496   -1.197180    0.115361    0.002482   -0.000164
H    -0.246487   -2.947553    0.001272   -1.367770   -0.030732    0.000188
H    -0.152164   -1.705342    2.151265   -0.800080   -0.018390    0.000002
H    -0.163166    0.797815   -2.120002   -0.589277   -0.013131    0.000186
H    -0.200990   -1.682974   -2.141749   -1.021962   -0.023078    0.000247
O    -0.061955    2.297732   -0.034863    0.031631    0.000860   -0.000044
H    -0.059589    2.658640    0.865370    0.076896    0.002002   -0.000110
Cl   -0.043098    1.101059    2.720887    0.005337    0.000114   -0.000004
13
* Frequency(17)  761.7183
C     0.067408   -1.858057    0.001406    0.150964    0.003548   -0.000038
C     0.040294   -1.169780    1.208588    0.110685    0.002372    0.000160
C    -0.039921    0.217051    1.206025   -0.056650   -0.001378    0.000089
C    -0.087420    0.940876    0.010342   -0.165313   -0.003623    0.000027
C     0.004964    0.239296   -1.194507    0.097764    0.002109   -0.000047
C     0.040949   -1.148302   -1.197193    0.115361    0.002482   -0.000164
H    -0.353220   -2.949951    0.001286   -1.367770   -0.030732    0.000188
H    -0.214597   -1.706777    2.151265   -0.800080   -0.018390    0.000002
H    -0.209149    0.796790   -2.119987   -0.589277   -0.013131    0.000186
H    -0.280737   -1.684775   -2.141730   -1.021962   -0.023078    0.000247
O    -0.059487    2.297799   -0.034866    0.031631    0.000860   -0.000044
H    -0.053589    2.658796    0.865362    0.076896    0.002002   -0.000110
Cl   -0.042681    1.101068    2.720886    0.005337    0.000114   -0.000004
13
* Frequency(17)  761.7183
C     0.074395   -1.857893    0.001405    0.150964    0.003548   -0.000038
C     0.045417   -1.169670    1.208596    0.110685    0.002372    0.000160
C    -0.042542    0.216987    1.206029   -0.056650   -0.001378    0.000089
C    -0.095071    0.940708    0.010343   -0.165313   -0.003623    0.000027
C     0.009489    0.239393   -1.194509    0.097764    0.002109   -0.000047
C     0.046288   -1.148187   -1.197201    0.115361    0.002482   -0.000164
H    -0.416523   -2.951373    0.001295   -1.367770   -0.030732    0.000188
H    -0.251626   -1.707628    2.151265   -0.800080   -0.018390    0.000002
H    -0.236422    0.796182   -2.119978   -0.589277   -0.013131    0.000186
H    -0.328036   -1.685843   -2.141718   -1.021962   -0.023078    0.000247
O    -0.058023    2.297838   -0.034868    0.031631    0.000860   -0.000044
H    -0.050030    2.658889    0.865357    0.076896    0.002002   -0.000110
Cl   -0.042434    1.101074    2.720886    0.005337    0.000114   -0.000004
13
* Frequency(17)  761.7183
C     0.075831   -1.857859    0.001404    0.150964    0.003548   -0.000038
C     0.046470   -1.169648    1.208597    0.110685    0.002372    0.000160
C    -0.043081    0.216974    1.206030   -0.056650   -0.001378    0.000089
C    -0.096644    0.940673    0.010343   -0.165313   -0.003623    0.000027
C     0.010419    0.239413   -1.194509    0.097764    0.002109   -0.000047
C     0.047385   -1.148164   -1.197202    0.115361    0.002482   -0.000164
H    -0.429536   -2.951666    0.001297   -1.367770   -0.030732    0.000188
H    -0.259239   -1.707803    2.151265   -0.800080   -0.018390    0.000002
H    -0.242029    0.796057   -2.119977   -0.589277   -0.013131    0.000186
H    -0.337759   -1.686063   -2.141716   -1.021962   -0.023078    0.000247
O    -0.057722    2.297847   -0.034868    0.031631    0.000860   -0.000044
H    -0.049298    2.658908    0.865356    0.076896    0.002002   -0.000110
Cl   -0.042384    1.101075    2.720886    0.005337    0.000114   -0.000004
13
* Frequency(17)  761.7183
C     0.071561   -1.857959    0.001405    0.150964    0.003548   -0.000038
C     0.043339   -1.169715    1.208593    0.110685    0.002372    0.000160
C    -0.041479    0.217013    1.206028   -0.056650   -0.001378    0.000089
C    -0.091968    0.940776    0.010342   -0.165313   -0.003623    0.000027
C     0.007654    0.239354   -1.194508    0.097764    0.002109   -0.000047
C     0.044122   -1.148234   -1.197198    0.115361    0.002482   -0.000164
H    -0.390850   -2.950797    0.001292   -1.367770   -0.030732    0.000188
H    -0.236609   -1.707282    2.151265   -0.800080   -0.018390    0.000002
H    -0.225362    0.796429   -2.119982   -0.589277   -0.013131    0.000186
H    -0.308854   -1.685410   -2.141723   -1.021962   -0.023078    0.000247
O    -0.058616    2.297822   -0.034867    0.031631    0.000860   -0.000044
H    -0.051473    2.658851    0.865359    0.076896    0.002002   -0.000110
Cl   -0.042535    1.101071    2.720886    0.005337    0.000114   -0.000004
13
* Frequency(17)  761.7183
C     0.062048   -1.858183    0.001408    0.150964    0.003548   -0.000038
C     0.036364   -1.169864    1.208582    0.110685    0.002372    0.000160
C    -0.037909    0.217100    1.206022   -0.056650   -0.001378    0.000089
C    -0.081550    0.941004    0.010341   -0.165313   -0.003623    0.000027
C     0.001493    0.239221   -1.194505    0.097764    0.002109   -0.000047
C     0.036853   -1.148390   -1.197187    0.115361    0.002482   -0.000164
H    -0.304657   -2.948860    0.001280   -1.367770   -0.030732    0.000188
H    -0.186190   -1.706124    2.151265   -0.800080   -0.018390    0.000002
H    -0.188227    0.797256   -2.119994   -0.589277   -0.013131    0.000186
H    -0.244453   -1.683956   -2.141739   -1.021962   -0.023078    0.000247
O    -0.060610    2.297768   -0.034864    0.031631    0.000860   -0.000044
H    -0.056319    2.658725    0.865366    0.076896    0.002002   -0.000110
Cl   -0.042871    1.101064    2.720886    0.005337    0.000114   -0.000004
13
* Frequency(17)  761.7183
C     0.048322   -1.858505    0.001411    0.150964    0.003548   -0.000038
C     0.026300   -1.170080    1.208568    0.110685    0.002372    0.000160
C    -0.032758    0.217225    1.206014   -0.056650   -0.001378    0.000089
C    -0.066520    0.941334    0.010338   -0.165313   -0.003623    0.000027
C    -0.007396    0.239029   -1.194501    0.097764    0.002109   -0.000047
C     0.026364   -1.148616   -1.197172    0.115361    0.002482   -0.000164
H    -0.180297   -2.946066    0.001263   -1.367770   -0.030732    0.000188
H    -0.113446   -1.704452    2.151265   -0.800080   -0.018390    0.000002
H    -0.134649    0.798450   -2.120011   -0.589277   -0.013131    0.000186
H    -0.151534   -1.681858   -2.141761   -1.021962   -0.023078    0.000247
O    -0.063486    2.297690   -0.034860    0.031631    0.000860   -0.000044
H    -0.063310    2.658543    0.865376    0.076896    0.002002   -0.000110
Cl   -0.043356    1.101054    2.720887    0.005337    0.000114   -0.000004
13
* Frequency(17)  761.7183
C     0.031871   -1.858892    0.001415    0.150964    0.003548   -0.000038
C     0.014238   -1.170338    1.208550    0.110685    0.002372    0.000160
C    -0.026585    0.217376    1.206004   -0.056650   -0.001378    0.000089
C    -0.048505    0.941728    0.010335   -0.165313   -0.003623    0.000027
C    -0.018049    0.238799   -1.194496    0.097764    0.002109   -0.000047
C     0.013793   -1.148887   -1.197154    0.115361    0.002482   -0.000164
H    -0.031246   -2.942717    0.001242   -1.367770   -0.030732    0.000188
H    -0.026258   -1.702448    2.151264   -0.800080   -0.018390    0.000002
H    -0.070433    0.799881   -2.120031   -0.589277   -0.013131    0.000186
H    -0.040167   -1.679343   -2.141788   -1.021962   -0.023078    0.000247
O    -0.066933    2.297596   -0.034856    0.031631    0.000860   -0.000044
H    -0.071690    2.658325    0.865388    0.076896    0.002002   -0.000110
Cl   -0.043938    1.101041    2.720887    0.005337    0.000114   -0.000004
13
* Frequency(17)  761.7183
C     0.014477   -1.859301    0.001420    0.150964    0.003548   -0.000038
C     0.001486   -1.170612    1.208532    0.110685    0.002372    0.000160
C    -0.020058    0.217534    1.205994   -0.056650   -0.001378    0.000089
C    -0.029458    0.942146    0.010332   -0.165313   -0.003623    0.000027
C    -0.029313    0.238556   -1.194490    0.097764    0.002109   -0.000047
C     0.000501   -1.149173   -1.197136    0.115361    0.002482   -0.000164
H     0.126343   -2.939176    0.001220   -1.367770   -0.030732    0.000188
H     0.065924   -1.700329    2.151264   -0.800080   -0.018390    0.000002
H    -0.002539    0.801394   -2.120052   -0.589277   -0.013131    0.000186
H     0.077579   -1.676684   -2.141816   -1.021962   -0.023078    0.000247
O    -0.070577    2.297497   -0.034851    0.031631    0.000860   -0.000044
H    -0.080550    2.658094    0.865401    0.076896    0.002002   -0.000110
Cl   -0.044553    1.101028    2.720888    0.005337    0.000114   -0.000004
13
* Frequency(17)  761.7183
C    -0.001974   -1.859687    0.001424    0.150964    0.003548   -0.000038
C    -0.010576   -1.170870    1.208515    0.110685    0.002372    0.000160
C    -0.013885    0.217684    1.205984   -0.056650   -0.001378    0.000089
C    -0.011443    0.942541    0.010329   -0.165313   -0.003623    0.000027
C    -0.039967    0.238326   -1.194485    0.097764    0.002109   -0.000047
C    -0.012070   -1.149443   -1.197118    0.115361    0.002482   -0.000164
H     0.275393   -2.935827    0.001200   -1.367770   -0.030732    0.000188
H     0.153112   -1.698325    2.151264   -0.800080   -0.018390    0.000002
H     0.061677    0.802825   -2.120072   -0.589277   -0.013131    0.000186
H     0.188946   -1.674169   -2.141843   -1.021962   -0.023078    0.000247
O    -0.074024    2.297403   -0.034846    0.031631    0.000860   -0.000044
H    -0.088929    2.657876    0.865413    0.076896    0.002002   -0.000110
Cl   -0.045134    1.101016    2.720888    0.005337    0.000114   -0.000004
13
* Frequency(17)  761.7183
C    -0.015700   -1.860010    0.001427    0.150964    0.003548   -0.000038
C    -0.020640   -1.171086    1.208500    0.110685    0.002372    0.000160
C    -0.008734    0.217810    1.205976   -0.056650   -0.001378    0.000089
C     0.003587    0.942870    0.010327   -0.165313   -0.003623    0.000027
C    -0.048856    0.238134   -1.194481    0.097764    0.002109   -0.000047
C    -0.022559   -1.149669   -1.197103    0.115361    0.002482   -0.000164
H     0.399753   -2.933033    0.001183   -1.367770   -0.030732    0.000188
H     0.225856   -1.696653    2.151264   -0.800080   -0.018390    0.000002
H     0.115255    0.804019   -2.120089   -0.589277   -0.013131    0.000186
H     0.281865   -1.672071   -2.141866   -1.021962   -0.023078    0.000247
O    -0.076900    2.297325   -0.034842    0.031631    0.000860   -0.000044
H    -0.095921    2.657694    0.865423    0.076896    0.002002   -0.000110
Cl   -0.045620    1.101005    2.720888    0.005337    0.000114   -0.000004
13
* Frequency(17)  761.7183
C    -0.025213   -1.860233    0.001430    0.150964    0.003548   -0.000038
C    -0.027615   -1.171235    1.208490    0.110685    0.002372    0.000160
C    -0.005164    0.217896    1.205970   -0.056650   -0.001378    0.000089
C     0.014005    0.943098    0.010325   -0.165313   -0.003623    0.000027
C    -0.055017    0.238002   -1.194478    0.097764    0.002109   -0.000047
C    -0.029829   -1.149825   -1.197093    0.115361    0.002482   -0.000164
H     0.485947   -2.931096    0.001171   -1.367770   -0.030732    0.000188
H     0.276275   -1.695494    2.151264   -0.800080   -0.018390    0.000002
H     0.152389    0.804846   -2.120101   -0.589277   -0.013131    0.000186
H     0.346266   -1.670616   -2.141881   -1.021962   -0.023078    0.000247
O    -0.078893    2.297271   -0.034839    0.031631    0.000860   -0.000044
H    -0.100767    2.657568    0.865430    0.076896    0.002002   -0.000110
Cl   -0.045956    1.100998    2.720889    0.005337    0.000114   -0.000004
13
* Frequency(17)  761.7183
C    -0.029483   -1.860334    0.001431    0.150964    0.003548   -0.000038
C    -0.030745   -1.171303    1.208485    0.110685    0.002372    0.000160
C    -0.003562    0.217935    1.205968   -0.056650   -0.001378    0.000089
C     0.018680    0.943201    0.010325   -0.165313   -0.003623    0.000027
C    -0.057782    0.237942   -1.194477    0.097764    0.002109   -0.000047
C    -0.033092   -1.149895   -1.197088    0.115361    0.002482   -0.000164
H     0.524632   -2.930227    0.001166   -1.367770   -0.030732    0.000188
H     0.298905   -1.694974    2.151264   -0.800080   -0.018390    0.000002
H     0.169056    0.805217   -2.120106   -0.589277   -0.013131    0.000186
H     0.375171   -1.669964   -2.141888   -1.021962   -0.023078    0.000247
O    -0.079788    2.297247   -0.034838    0.031631    0.000860   -0.000044
H    -0.102942    2.657511    0.865433    0.076896    0.002002   -0.000110
Cl   -0.046107    1.100995    2.720889    0.005337    0.000114   -0.000004
13
* Frequency(17)  761.7183
C    -0.028046   -1.860300    0.001431    0.150964    0.003548   -0.000038
C    -0.029692   -1.171280    1.208487    0.110685    0.002372    0.000160
C    -0.004101    0.217922    1.205969   -0.056650   -0.001378    0.000089
C     0.017108    0.943166    0.010325   -0.165313   -0.003623    0.000027
C    -0.056852    0.237962   -1.194477    0.097764    0.002109   -0.000047
C    -0.031994   -1.149872   -1.197089    0.115361    0.002482   -0.000164
H     0.511619   -2.930519    0.001167   -1.367770   -0.030732    0.000188
H     0.291292   -1.695149    2.151264   -0.800080   -0.018390    0.000002
H     0.163450    0.805093   -2.120105   -0.589277   -0.013131    0.000186
H     0.365448   -1.670183   -2.141886   -1.021962   -0.023078    0.000247
O    -0.079487    2.297255   -0.034838    0.031631    0.000860   -0.000044
H    -0.102210    2.657530    0.865432    0.076896    0.002002   -0.000110
Cl   -0.046056    1.100996    2.720889    0.005337    0.000114   -0.000004
13
* Frequency(17)  761.7183
C    -0.021060   -1.860136    0.001429    0.150964    0.003548   -0.000038
C    -0.024570   -1.171170    1.208494    0.110685    0.002372    0.000160
C    -0.006723    0.217859    1.205973   -0.056650   -0.001378    0.000089
C     0.009457    0.942999    0.010326   -0.165313   -0.003623    0.000027
C    -0.052327    0.238060   -1.194479    0.097764    0.002109   -0.000047
C    -0.026655   -1.149757   -1.197097    0.115361    0.002482   -0.000164
H     0.448316   -2.931941    0.001176   -1.367770   -0.030732    0.000188
H     0.254263   -1.696000    2.151264   -0.800080   -0.018390    0.000002
H     0.136177    0.804485   -2.120096   -0.589277   -0.013131    0.000186
H     0.318149   -1.671251   -2.141875   -1.021962   -0.023078    0.000247
O    -0.078023    2.297295   -0.034840    0.031631    0.000860   -0.000044
H    -0.098651    2.657623    0.865427    0.076896    0.002002   -0.000110
Cl   -0.045809    1.101001    2.720889    0.005337    0.000114   -0.000004
13
* Frequency(17)  761.7183
C    -0.009279   -1.859859    0.001426    0.150964    0.003548   -0.000038
C    -0.015932   -1.170985    1.208507    0.110685    0.002372    0.000160
C    -0.011143    0.217751    1.205980   -0.056650   -0.001378    0.000089
C    -0.003443    0.942716    0.010328   -0.165313   -0.003623    0.000027
C    -0.044698    0.238224   -1.194483    0.097764    0.002109   -0.000047
C    -0.017653   -1.149563   -1.197110    0.115361    0.002482   -0.000164
H     0.341584   -2.934340    0.001191   -1.367770   -0.030732    0.000188
H     0.191830   -1.697435    2.151264   -0.800080   -0.018390    0.000002
H     0.090193    0.803460   -2.120081   -0.589277   -0.013131    0.000186
H     0.238402   -1.673052   -2.141855   -1.021962   -0.023078    0.000247
O    -0.075555    2.297362   -0.034844    0.031631    0.000860   -0.000044
H    -0.092651    2.657779    0.865418    0.076896    0.002002   -0.000110
Cl   -0.045393    1.101010    2.720888    0.005337    0.000114   -0.000004
13
* Frequency(17)  761.7183
C     0.006018   -1.859500    0.001422    0.150964    0.003548   -0.000038
C    -0.004717   -1.170745    1.208523    0.110685    0.002372    0.000160
C    -0.016884    0.217611    1.205989   -0.056650   -0.001378    0.000089
C    -0.020195    0.942349    0.010331   -0.165313   -0.003623    0.000027
C    -0.034792    0.238438   -1.194488    0.097764    0.002109   -0.000047
C    -0.005963   -1.149312   -1.197126    0.115361    0.002482   -0.000164
H     0.202988   -2.937454    0.001210   -1.367770   -0.030732    0.000188
H     0.110758   -1.699298    2.151264   -0.800080   -0.018390    0.000002
H     0.030482    0.802130   -2.120063   -0.589277   -0.013131    0.000186
H     0.134847   -1.675391   -2.141830   -1.021962   -0.023078    0.000247
O    -0.072349    2.297449   -0.034848    0.031631    0.000860   -0.000044
H    -0.084859    2.657982    0.865407    0.076896    0.002002   -0.000110
Cl   -0.044852    1.101022    2.720888    0.005337    0.000114   -0.000004
13
* Frequency(17)  761.7183
C     0.023174   -1.859096    0.001418    0.150964    0.003548   -0.000038
C     0.007862   -1.170475    1.208541    0.110685    0.002372    0.000160
C    -0.023322    0.217455    1.205999   -0.056650   -0.001378    0.000089
C    -0.038982    0.941937    0.010334   -0.165313   -0.003623    0.000027
C    -0.023681    0.238678   -1.194493    0.097764    0.002109   -0.000047
C     0.007147   -1.149030   -1.197145    0.115361    0.002482   -0.000164
H     0.047548   -2.940946    0.001231   -1.367770   -0.030732    0.000188
H     0.019833   -1.701388    2.151264   -0.800080   -0.018390    0.000002
H    -0.036486    0.800637   -2.120042   -0.589277   -0.013131    0.000186
H     0.018706   -1.678013   -2.141802   -1.021962   -0.023078    0.000247
O    -0.068755    2.297547   -0.034853    0.031631    0.000860   -0.000044
H    -0.076120    2.658210    0.865394    0.076896    0.002002   -0.000110
Cl   -0.044245    1.101035    2.720887    0.005337    0.000114   -0.000004
