%chk=ch2fcl_hf_sto3g.chk
%mem=8GB
%nprocshared=8
#p hf/sto-3g opt=tight scf=tight

CH2FCl (chlorofluoromethane) opt  /  HF/STO-3G  (minimal accuracy)

0 1
C
F   1  1.38
Cl  1  1.77   2  110.0
H   1  1.09   2  110.0   3   120.0
H   1  1.09   2  110.0   3  -120.0

--Link1--
%chk=ch2fcl_b3lyp_ccpvdz.chk
%mem=8GB
%nprocshared=8
#p b3lyp/cc-pVDZ opt=tight freq pop=full int=ultrafine

CH2FCl opt+freq  /  B3LYP/cc-pVDZ  (reasonable accuracy) -- 也用于密度/静电势图和 BDE

0 1
C
F   1  1.36
Cl  1  1.76   2  110.0
H   1  1.09   2  110.0   3   120.0
H   1  1.09   2  110.0   3  -120.0

--Link1--
%chk=ch2fcl_ccsd_ccpvtz.chk
%mem=24GB
%nprocshared=8
#p ccsd/cc-pVTZ opt scf=tight

CH2FCl opt  /  CCSD/cc-pVTZ  (high accuracy)

0 1
C
F   1  1.36
Cl  1  1.76   2  110.0
H   1  1.09   2  110.0   3   120.0
H   1  1.09   2  110.0   3  -120.0

